len = 959;
top_k = 20;
beta_streets = 0.4;
alpha_yard = 0.8;
street_space = [ 492.2525318209082, 31.233217909466475, 2433.6009142920375, 1588.8390097520314, 1544.4741954938509, 101.83582555875182, 30.44776145974174, 2897.775026291609, 1777.223343912512, 1140.3302842229605, 1504.6753309518099, 3281.108994220849, 2784.8010945860296, 3238.6172109935433, 2257.8476402908564, 1110.5173990298063, 468.7504511750303, 2190.6523921135813, 219.00111398100853, 212.17669839784503, 2258.209362242371, 1903.1981785860844, 3958.962755907327, 2034.54076038301, 1406.026660521049, 3462.012404578738, 2162.1555933356285, 1839.539353678003, 1932.6875096037984, 1964.545384041965, 2347.627931172028, 1361.8362526893616, 41.61836573691107, 406.73776868730783, 1262.5281256642193, 1569.3214644789696, 0.0, 1456.0348073989153, 3167.44692431204, 3778.7304535768926, 2603.569510439411, 987.1795684546232, 1457.7534511201084, 988.7295466661453, 465.185146689415, 0.0, 0.0, 1419.9737810194492, 1707.342212022515, 364.07132038264535, 2563.9657120723277, 0.0, 234.35909776575863, 1974.9761873665266, 4236.018361517112, 0.0, 3447.295648938045, 0.0, 3070.861464292393, 1751.0284315034514, 1054.0859908591956, 838.9605876542628, 1677.3139502629638, 812.1008427962661, 1585.0062369965017, 0.0, 0.0, 29.284099189681, 3120.155278030783, 1515.1115504801273, 2109.7832311745733, 1636.9927918612957, 2848.118403945118, 3078.5199260166846, 5669.737941160798, 1874.446864016354, 5051.015204004943, 3252.2229670397937, 3489.6690356731415, 1358.5054857432842, 1353.6939255818725, 327.1399732083082, 923.152276779525, 0.0, 1365.3776283804327, 0.0, 111.39695531874895, 1712.5563561916351, 1624.0700753480196, 12.605086987838149, 2346.5546360835433, 1859.4907039757818, 0.0, 220.8474561572075, 3877.331585776061, 2048.124688846059, 5221.556433565915, 2665.186723012477, 4037.000368764624, 2394.602341970429, 30.621180082671344, 1546.1313820760697, 0.0, 395.522265765816, 1199.5883637107909, 0.0, 1456.0992662385106, 1390.4299399033189, 2504.2088353969157, 69.46085308864713, 934.6039931857958, 1011.3254039026797, 2188.3597560040653, 367.57652660360327, 1301.1393981575966, 455.5443751066923, 984.6310006976128, 2455.0774625437334, 3150.477319627069, 5279.107732906938, 2724.9273229427636, 2499.7980857528746, 4117.000638468191, 863.6716619171202, 1435.999231364578, 1100.5493641644716, 220.51409171149135, 1285.417201058939, 221.05599601846188, 559.9425394497812, 700.704003483057, 50.82291126251221, 1721.3848621547222, 85.67900381237268, 0.0, 1534.1668144389987, 1808.1694846171886, 3020.3574912771583, 47.4650229588151, 1.5531074316240847, 2260.687084404868, 883.9212297685444, 1403.8882246911526, 1122.650057978928, 5459.957246892154, 3361.506428040564, 4605.048435166478, 5819.59412842989, 1500.8553466796875, 2113.879134852439, 1777.544666774571, 788.5568349100649, 1835.1642462313175, 509.5406067902222, 990.5559481605887, 1933.8602665662766, 0.0, 774.7539527677, 388.5604905541986, 837.9666854962707, 2570.5812247917056, 635.0587287321687, 150.4013421535492, 1816.4171245992184, 1919.0698096565902, 3966.348105534911, 0.0, 1753.084903670475, 2230.8787576705217, 4292.305873498321, 2011.4992579277605, 2264.602577932179, 5518.213846275583, 1381.0777121018618, 952.9152260050178, 2356.170060168486, 266.5163422077894, 3044.0558461975306, 0.0, 0.0, 1895.5925521850586, 1279.1128968670964, 1131.1428212225437, 603.3528492655605, 787.1021528579295, 2003.9055109396577, 0.0, 0.0, 1742.092731247656, 195.19051110744476, 1309.1643676878884, 1182.9943080842495, 3483.915001809597, 14.250313319265842, 441.33228078484535, 2309.5353148430586, 575.9664528928697, 711.3251407574862, 0.0, 4323.06030921638, 2582.741957962513, 2711.0689188838005, 474.69807207677513, 1238.258215201553, 3588.2402107771486, 2933.1275738328695, 4333.822872653604, 3677.8086924459785, 1271.1636713333428, 1333.2902871659026, 2152.4354240372777, 917.1433341540396, 3232.3456158712506, 2927.1575381830335, 2.5366523675620556, 1145.4475158611313, 1808.2169578429312, 150.50080691825133, 3170.5688055455685, 1103.636220395565, 2490.0433167349547, 3154.5154931247234, 1732.183536618948, 1564.170545771718, 1640.572598055005, 571.1676024757326, 1195.0777638293803, 2843.710428595543, 1621.2392966002226, 1496.1425895541906, 2800.9194941073656, 4503.509517414495, 3406.4516440578736, 1239.9367559407838, 1974.923228379339, 1101.7561862822622, 2644.040252607316, 659.2280981242657, 911.8186660655774, 681.3356535732746, 2346.03043740429, 1714.8181648523241, 1157.7012999281287, 1321.727254264988, 1671.9581518545747, 499.837023797445, 926.4149448265816, 1477.068537183106, 3982.7500277273357, 2404.316412553191, 3318.46220998466, 1912.6983586400747, 0.0, 1254.6812802741188, 1444.004617743194, 3873.3781034201384, 3680.358027458191, 3634.9038983508945, 4692.069270089269, 3073.369240760803, 1839.4880046797916, 3259.8387616872787, 348.8773224540055, 1010.6514152828604, 1292.7407863680273, 1441.947359714657, 2391.2814348340034, 776.2984037380666, 807.8288790453225, 2949.1614687666297, 878.0882910136133, 3138.45942196995, 1570.5701197981834, 1609.488496940583, 3277.5011808592826, 2001.1445886939764, 4365.403364665806, 588.9163330178708, 5667.239808574319, 3040.860993653536, 2437.0074583292007, 2490.5844367127866, 1394.0065762549639, 3244.8196874707937, 1845.5490122381598, 4437.120000556111, 1857.9181676916778, 2428.5740322470665, 1880.8871406689286, 1397.2450395710766, 1729.4284340143204, 3409.8409350812435, 1309.4027741027094, 404.3940620366484, 296.901169674471, 1794.7075441945344, 1462.5366997644305, 1274.4637202210724, 1580.016256198287, 1853.2764829136431, 0.0, 1943.4172553587705, 440.5094519853592, 0.0, 4873.563105024397, 996.6583771109581, 0.0, 3594.779230065644, 2385.621284952387, 411.55040833353996, 2370.8867627140135, 2519.5110434815288, 724.7622102499008, 1396.8258904516697, 4146.246506262571, 1192.23403198272, 2109.2777859307826, 3720.031490728259, 2439.2085598111153, 1838.1817880943418, 1927.256230417639, 1249.1330462805927, 2241.8250899072737, 2880.617200180888, 2349.980769513684, 115.402054451406, 2137.625454875175, 1028.6871051180642, 1995.1018426902592, 2656.398050919175, 1858.8971269051544, 1932.8156852833927, 1390.9205755926669, 4118.537456379272, 3241.309229804785, 1827.470970377326, 2393.836092323065, 4235.758491847664, 0.0, 3685.0067052692175, 1749.860977500677, 4472.259474039078, 4632.510536313057, 2736.960003076121, 3030.970574643463, 1654.8692486025393, 3211.251538038254, 1087.9350200793706, 1029.9169364495956, 1491.5624224906787, 2747.2188249379396, 1016.6086698025465, 924.0434454181232, 2153.194664016366, 2397.7653609458357, 3609.2490840032697, 3202.4753307607025, 1088.0542163867503, 3871.635604262352, 3168.0666796416044, 1726.94411341846, 1453.7099973000586, 505.25079141696915, 1769.7384432330728, 2568.38716789335, 1736.6050486396998, 1970.9056087192148, 1692.3627183772624, 1587.8593647554517, 3711.3530295677483, 0.0, 3654.809445012361, 2208.9600644111633, 2857.094961164519, 436.9071862399578, 6792.0403362214565, 694.4467757865787, 3472.541915677488, 4226.731569804251, 2173.5265421122313, 1308.2620405210473, 2704.382759719534, 3471.373730813153, 2168.671959735453, 2119.3208949267864, 2361.5513819903135, 1663.278085038066, 2318.9232975640334, 731.0063109397888, 835.5195570588112, 2083.441304521635, 1776.4565152339637, 2458.492297396064, 2723.8187734782696, 1569.360992754344, 2139.971580127254, 0.0, 836.161905605346, 1216.4088924389798, 399.1738717108965, 1067.8770792689174, 3660.9705421328545, 0.0, 1547.2044850920793, 2107.298503816128, 3112.6074476093054, 2160.3246070714667, 4527.980212137103, 2367.7728605642915, 4536.118084035814, 548.2235651314259, 1040.9249549815431, 1122.915064662695, 1857.1216890737414, 2043.8356424281374, 1653.3703813552856, 1535.7353477701545, 1727.5318990275264, 1677.9885631613433, 3038.580162897706, 1205.5007896572351, 0.0, 1848.5011250767857, 1920.0142728574574, 439.1220868900418, 2352.306736689061, 730.4508336335421, 2575.0015456974506, 1216.700847774744, 1008.4365601688623, 924.5617262218148, 1898.0719781406224, 898.8917322396301, 2931.7004394745454, 13.910456644371152, 0.0, 8.885748594999313, 3798.14106458053, 3370.997999469517, 3907.7204643189907, 2284.356603715569, 328.13231112866197, 2857.999678902328, 2976.9704763889313, 1248.466914050281, 1611.973084576428, 2517.008954320103, 2669.744766879827, 3646.53354896605, 2818.5767651498318, 2832.5181881464086, 418.5936454422772, 2104.1438106037676, 270.681634478271, 0.0, 403.5196029408835, 1580.1871533505619, 3265.6583289317787, 3052.355173751712, 699.0287313098088, 2557.649738881737, 2387.6522934138775, 924.74231930729, 0.0, 2516.79239490442, 2705.6322445813566, 1328.4393381476402, 873.3538723227684, 0.0, 0.0, 5928.8490070179105, 5310.789392414037, 1690.8560956027359, 4056.1206209883094, 2606.8371862508357, 2072.110281944275, 4875.092533193529, 2097.753757946193, 1848.528575334698, 3944.9461666869465, 2463.122611053288, 1838.078984497115, 1512.490412896499, 1391.4423128403723, 2125.821779578924, 1459.5580550655723, 2551.61982152611, 2642.29330900684, 2030.5955434488133, 1151.561588190496, 634.5365079157054, 1330.788257855922, 1257.558922374621, 1280.5063249021769, 0.0, 0.0, 228.9980345070362, 4079.2548902807757, 712.293554527685, 2690.8446224959334, 1822.3422516239807, 1234.4484901437536, 2907.4983240664005, 2782.294483140111, 3103.5726199559867, 2087.522472523153, 845.2803867466282, 0.0, 4580.641214583069, 0.0, 160.64630814641714, 3516.3627158240415, 2884.9209593832493, 1781.687694620341, 1606.307428445667, 2067.5917858248577, 2174.965572988207, 1962.9259153939784, 3314.8885416910052, 3115.5919726490974, 1463.7337192855775, 1633.0780180636793, 365.441081751138, 2371.3411172293127, 1895.0986659005284, 1713.9335475414991, 248.5715050958097, 0.0, 1521.8363330364227, 5278.120508283377, 1058.3160839378834, 2428.422909319401, 1579.7937816064805, 1043.368044601633, 2894.748802499954, 1801.8730444312096, 53.453830984886736, 0.0, 0.0, 0.0, 3048.285174909979, 2315.1174102853984, 1394.3922570422292, 2161.6744322814047, 4274.771692998707, 1789.4668191745877, 2297.2490406297147, 3864.8500950653106, 2564.573792040348, 1218.9437516015023, 1048.725695035886, 4004.743724498432, 1839.3136231601238, 2267.8798915268853, 2081.5934698954225, 3048.27027887851, 1246.6279175244272, 759.2930002762005, 0.0, 2175.94928332977, 760.4050620188937, 2103.18707628455, 969.9242234453559, 3789.492838859558, 2524.7739909663796, 0.0, 2416.4904342833906, 3485.316680803895, 0.0, 0.0, 0.0, 0.0, 489.8018515538424, 4779.050322078168, 2343.634351786226, 2844.609560213983, 2051.4899908360094, 230.98548910021782, 1199.2511731795967, 1807.3555334592238, 1276.1910266689956, 1940.2407704186626, 2098.2066149124876, 859.9022568515502, 2030.8957378114574, 553.7705685161054, 948.845928831026, 1752.2706166794524, 1343.1120310109109, 1033.8393008969724, 946.8648354560137, 1469.0301355868578, 834.4054952710867, 422.14185866713524, 1073.5764095187187, 913.2539320327342, 2279.2044212985784, 0.0, 2339.5618964713067, 4078.6127643529326, 98.75049155950546, 0.0, 685.1795543925837, 1237.6968583278358, 2614.6976047232747, 4152.626788662747, 1005.413473252207, 411.6538619045168, 1116.213586255908, 2415.450413428247, 2246.27711237967, 1091.9475333523005, 1409.380484983325, 2092.49191838596, 982.2396628260612, 1512.3209670255892, 1817.0763235017657, 1475.090103152208, 601.0512084402144, 1692.4245945699513, 2417.3406594619155, 586.7463165484369, 0.0, 1522.871088015847, 2304.4272081144154, 1472.7516482919455, 2191.295265637338, 2791.6190503686666, 1611.2007926553488, 3.279492805711925, 0.0, 1620.1543583506718, 1651.7210928797722, 4165.973745286465, 1683.0955507308245, 1830.1613104715943, 3210.071000561118, 1853.8419258799404, 1721.2714850008488, 3200.073949843645, 621.814470153302, 342.5521143563092, 2192.423262320459, 1901.3885494209826, 1537.6372659020126, 890.6016203630716, 3738.752564288676, 1791.3246966563165, 446.53329503163695, 1735.8174737654626, 341.67701331339777, 1219.5405089426786, 3339.1451856046915, 1291.6014817245305, 607.963068375364, 856.8081670938991, 1291.4102499196306, 2376.1871139146388, 1165.052405193448, 1157.8715363554657, 83.66213453747332, 3085.6778235519305, 835.864779304713, 350.45576843619347, 3779.9170655608177, 5176.526478946209, 2520.0803896365687, 0.0, 3553.576863102615, 2639.5492408275604, 2421.1779891252518, 3044.2120530977845, 1151.2620367854834, 1079.9192246347666, 1270.7179399775341, 28.021489745005965, 1835.6208545938134, 1399.445963587612, 0.0, 950.139594047796, 1717.8819100949913, 2054.177404548973, 1882.2939540594816, 764.5892036836594, 343.9053650852293, 2262.708969014231, 2145.101237877272, 1566.360632929951, 1080.6814801804721, 876.8481218628585, 453.280771009624, 1421.8481390653178, 1228.7336919419467, 417.3406883738935, 1451.6660508979112, 0.0, 1626.3701095785946, 516.6377680301666, 5779.598946574144, 4381.069511845708, 2066.7462863624096, 0.0, 1603.9587222337723, 4333.429018557072, 997.172320023179, 960.3982244506478, 2049.9613105244935, 1147.7192035466433, 1086.3817850090563, 1043.8187220785767, 241.02276584506035, 58.43481348454952, 2120.5384167432785, 1261.5479067526758, 1528.828277378343, 971.7249626666307, 1283.9089051783085, 1577.0088484529406, 1921.8246112717316, 2161.543364174664, 53.908377934247255, 84.55499061662704, 1920.3962815888226, 1052.6719735339284, 2044.3738349732012, 1424.4147153496742, 1773.7007596157491, 0.0, 1366.454173273407, 0.0, 2679.2251166803762, 3897.831211283803, 1567.4006812563166, 2086.787535689771, 1092.6168481856585, 688.8142425119877, 3265.3423167169094, 0.0, 1533.7051445394754, 0.0, 2021.992221438326, 2063.68644118309, 1463.1629640571773, 750.1100196763873, 3840.555027194321, 4301.117660462856, 3948.078455362469, 3070.4452866986394, 1225.8379433006048, 528.4683274701238, 1068.1524861007929, 49.38365763798356, 1804.2622465193272, 1411.2330026626587, 0.0, 563.87931910716, 2060.3407554570585, 415.9749909490347, 1443.780449172482, 0.0, 104.51467891037464, 1525.6437351480126, 13.42263276129961, 3090.405138358008, 1933.5238035293296, 182.7137989550829, 0.0, 0.0, 4349.878354344517, 974.5439128763974, 2032.745573207736, 640.7766513451934, 431.1097942441702, 2168.7775546349585, 1342.1781940758228, 1234.765661265701, 1985.5838023386896, 810.1289769578725, 988.3503349758685, 1891.7025945223868, 125.65695606917143, 0.0, 1532.8494683187455, 292.3887111991644, 0.0, 1460.1574720116332, 1495.0444461926818, 967.2671066746116, 316.78386968839914, 1612.7676518447697, 1474.7366390824318, 0.0, 3388.0097438474186, 2406.0957942530513, 2253.1990259587765, 2371.2417537793517, 0.0, 0.0, 0.0, 3691.724372440949, 661.1877765655518, 912.100315510761, 949.377168500796, 5.643193045631051, 1062.5948550254107, 1386.8320146352053, 1205.1138934977353, 1750.9915797989815, 1155.666471425444, 987.7632359806448, 0.0, 1384.276969759725, 964.3029776960611, 103.765639398247, 1291.6589607493952, 877.7282906230539, 370.32483446598053, 592.216496925801, 3771.1815040931106, 1036.292650796473, 917.0152758508921, 4268.262824805453, 81.55282352119684, 0.0, 0.0, 0.0, 0.0, 3792.2733777780086, 0.0, 0.0, 167.8108840174973, 1979.2435501031578, 4483.106565475464, 2082.371496461332, 976.4504238069057, 3247.992860302329, 2350.2560746520758, 2861.673931643367, 813.9582232888788, 1672.7537195906043, 752.9334106743336, 1045.590608548373, 277.22244361415505, 1616.0253737941384, 403.6132862865925, 0.0, 353.4683966040611, 1152.2259864769876, 808.8370786048472, 483.67929432168603, 3536.873300973326, 1233.2978785559535, 1527.44593334198, 3618.757726058364, 975.8412370621227, 0.0, 0.0, 0.0, 2079.9860991090536, 1969.771604001522, 656.5438094139099, 1962.75786806643, 504.1695071030408, 3943.356088619679, 2256.925608534366, 0.0, 2110.6523119751364, 0.0, 1555.8733662385494, 846.0151762142777, 1428.2036635577679, 610.4581960421056, 600.0471005067229, 1122.4258214570582, 1466.1152538787574, 2778.5378685332835, 155.08995126746595, 753.999289508909, 2601.698093879968, 0.0, 0.0, 4074.4830787219107, 0.0, 1616.0704800635576, 797.8466363996267, 1437.0064689591527, 0.0, 0.0, 0.0, 3866.573283676058, 1599.0138320103288, 1788.2635751944035, 2155.401035569608, 1052.5565426237881, 820.254593309015, 929.8217100426555, 2313.0273945890367, 1011.2735010683537, 949.9217174053192, 876.5433042049408, 1512.9409874845296, 683.5941952783614, 1320.3910364694893, 1146.7016959097236, 504.2980099096894, 2078.080529168248, 1144.1784335672855, 0.0, 496.29764276742935, 918.2042926251888, 199.67898239661008, 3991.9651407003403, 0.0, 148.00230913981795, 1495.993120059371, 301.9600316416472, 0.0, 0.0, 616.2906373515725, 1166.1099243611097, 49.1035737702623, 307.28124469704926, 1106.988280363381, 1660.3822369873524, 2036.179245044943, 1640.958746187389, 1620.336040519178, 2839.950769804418, 669.5839541134774, 1990.3438313007355, 1341.1846620962024, 1346.5816840678453, 1874.9368197978474, 2079.9868340266403, 1207.8214368540794, 1303.2483337521553, 1194.6306671053171, 2227.349634371698, 697.2550035240129, 3349.6270823329687, 1247.3114875629544, 748.4720066097798, 1944.1175750275142, 0.0, 0.0, 1053.8901246674359, 0.015403640281874686, 388.218083653599, 95.52188357897103, 555.9601552989334, 1244.4410635530949, 1930.1404097592458, 2181.8921698424965, 2898.127222985029, 1717.5741244409437, 2178.664327226579, 351.79329891875386, 0.0, 0.0 ];
ext_space = [ 0.0, 0.00043599594573606737, 1149.3207073562407, 1062.4490662515163, 0.22038033427816117, 0.0, 0.0, 1530.7768453950994, 1153.101935869171, 2546.701088339857, 1415.3220027338393, 1309.3402315006003, 2079.3820134620764, 1083.7764338975467, 365.0704005919397, 73.73083316814154, 0.0, 412.6487526717235, 2045.6590691809251, 3460.640783772571, 1334.0829519740983, 1425.3053236464266, 1434.1364030546586, 2633.947615371979, 2121.2739039100024, 845.3560123132775, 1555.904756387898, 3407.74475383304, 3835.2323172837496, 2277.114182960857, 16.008902325935196, 0.0, 0.0, 0.0, 403.3617982342553, 1303.0183836474323, 3928.483121549245, 2145.224720455309, 1529.8313572604966, 1315.3346129061613, 2508.16800213267, 2667.353859166279, 2239.202663318504, 2707.578570156937, 2378.139598712714, 2574.6598749242257, 4443.665576754163, 2165.7332713185406, 3545.875070405673, 1093.8595608323812, 120.61651127808727, 0.0, 0.0, 406.27415747887363, 899.6298504996739, 652.9635234636371, 1324.9954744909608, 3996.2954117195495, 378.120508368419, 3096.2587641096225, 2549.411580158863, 1375.2803761179962, 1267.683693515572, 1874.061847547187, 2398.4958607213885, 3657.910117430889, 5801.288893372237, 2994.8779422400858, 1977.1150945557747, 1149.2550944262723, 991.1629169599548, 244.47157620359212, 223.39892698393993, 1656.4496717298348, 862.383471178573, 381.1918032444082, 782.4906783806405, 1861.5745095879936, 1068.9784777588939, 1106.8419109408715, 1689.0767684820703, 2912.2424654668002, 1578.2433417759948, 2762.5045989567225, 1614.2594947951748, 3227.47668257471, 3646.241160252812, 2877.0418730746223, 3362.291080144234, 6552.358010402155, 2541.3218000175157, 1721.3440930976412, 0.0, 0.0005384301448430051, 1297.1754574816207, 4351.650033944969, 904.3330922674431, 1052.8274368124694, 1163.2299392062007, 489.63884707276907, 1900.7377702019567, 1110.7859371665872, 3119.1801811859477, 2770.7003008418365, 3119.5442591633796, 5710.7029069880955, 1866.7350862118228, 1977.246337793942, 1648.398763599569, 3095.151887577225, 2978.63893892284, 3170.050586703898, 1267.2842816730356, 2402.5268961387974, 230.76531378598884, 0.0, 29.432166413223268, 1031.1611464599432, 1067.50884209463, 69.07559425129796, 3239.463775834174, 2915.0047504073273, 983.7607500883779, 2997.6889525383012, 1042.531386625393, 1391.1616513802235, 2726.30224619908, 2685.1150303308677, 3696.0421786796614, 2315.03989291971, 1649.893100551155, 457.1582785055507, 1007.3023320875715, 3276.8605512112845, 4130.198146793991, 1640.4627453510775, 2267.8692329557325, 1426.6670452457874, 0.0, 0.0, 206.668060883414, 3364.133403052496, 3975.3010904023254, 2481.831040272208, 514.9475822516714, 1307.0429838166883, 1341.4461513383603, 998.7144052177464, 1956.4295267667792, 1318.203527146915, 1193.0936713086849, 2822.649280967027, 1116.3004463995564, 693.005998179322, 2163.433166583578, 766.5552715966733, 4170.994586815861, 2491.33366161324, 2275.373172438708, 1564.3075601285454, 1177.9547259535375, 2938.6330975053133, 3002.4024310720833, 686.1718406975851, 233.21655783637743, 1723.8196740721144, 936.5919338366612, 1146.5262860911898, 2348.092218927357, 1863.1067889024189, 1267.366138345702, 1015.8968514394345, 1081.2282289490474, 1254.8328930503274, 1898.0586312909002, 1049.8110909959069, 1791.9039310410153, 432.9410558074014, 679.6075937380083, 421.9745619187852, 1294.639071546495, 1558.3266319323207, 1476.6336274939792, 1935.9989558975296, 1762.434714036116, 832.6123603010637, 2616.448166351278, 4478.467002160847, 1748.5241303551902, 0.0, 0.0, 2285.5332310847007, 2449.6725563046057, 632.4684771820309, 4526.824115629075, 4770.193404320627, 2378.074908924359, 2385.4346404224634, 3591.441504414659, 406.4250967032283, 1053.3362761930237, 1271.0254761357044, 1925.6419018470606, 1350.9736090926453, 472.5011994608212, 834.0343435266186, 794.4768756464591, 914.9314632078804, 1701.7910686927687, 3029.8000341388615, 1237.2139933032988, 1620.2916594298263, 545.3104092902213, 818.0148785467909, 2599.4813185594976, 2860.939647182541, 1109.3587096780539, 0.0, 157.10193123738281, 2307.1397292623296, 3453.1393680842593, 976.581090490392, 2442.3957607294433, 1711.2509066602215, 1521.7396880825981, 420.3822383508086, 1231.1749504178297, 1598.1253159815963, 1689.3444399388775, 115.01385867642603, 144.7153481043497, 220.30075123906136, 466.3690744359046, 947.969047088811, 724.0722198318878, 1489.480352241435, 608.9376515714508, 1368.063822588582, 3045.020490146699, 3429.938440549668, 1084.5991585654538, 1375.3186390801982, 5603.266222954772, 3639.4863970608303, 3083.8068804490977, 22.92751137726009, 1011.2797665074468, 405.3295841217041, 1945.5202339794953, 1011.9395013331887, 1673.9571177377366, 3348.4963806690457, 3604.6221247243384, 1274.9719678862964, 709.6825412241701, 1193.863829505176, 1772.0539718892542, 421.6411584097233, 406.8414951630366, 335.5079898517579, 166.29020915862918, 1146.1529061928159, 2445.5034161843687, 959.6644694061251, 1535.2328135743082, 1135.1255253946342, 539.8825005921535, 1664.5044477995211, 1596.48616191667, 748.76245875307, 2500.4394534855255, 598.2262236992386, 1593.343943049591, 2318.9395645686964, 733.753729489734, 0.06183241951771379, 381.3106857468074, 2907.988112166524, 1163.8797476485386, 1099.4968055202626, 1127.8267595757475, 4106.751976783841, 3822.1245903117333, 1318.4030266341542, 251.51375276876274, 66.84494457480287, 393.78520576748997, 305.66665383723637, 1713.993641820969, 1333.7751187856036, 387.25428592599945, 283.28797221581334, 600.857358394698, 2.0113403658117477, 3234.8449691766873, 1870.806899658579, 1403.1651120673275, 1365.0090522037476, 2096.511387999591, 2109.856954427035, 4925.13138172403, 1089.7578956557627, 4790.256259627247, 3593.441920949146, 1830.9071818253867, 0.0, 21.373366189141233, 447.1769146751593, 939.5095221299355, 717.190376130864, 936.5615357167553, 1925.4353833163077, 133.6369780849859, 595.093862857701, 1419.0403942081177, 1251.116773071461, 750.8947678648467, 745.8161913850803, 1443.074805529266, 1090.4892904949859, 962.4807010974694, 1113.4467694796497, 794.252467567635, 714.5645018484836, 774.4994378470323, 1093.0127661867393, 793.2837700084783, 1485.189224382164, 499.4179063699517, 757.9147847262227, 483.33921806167825, 1016.6244779274872, 1792.5415983656421, 948.0369660390807, 643.5584306577957, 1887.4416284700642, 710.1519923216938, 0.03193009999449714, 0.0, 190.74552537626562, 1161.7944538677693, 751.9469770763535, 815.3856258494264, 1571.386771507527, 944.2620822149402, 3179.9899133332256, 3313.589007837531, 1264.4816287408344, 1798.908263231283, 1771.342105089663, 1360.0034402429271, 2424.9296679372274, 1841.6145054340723, 814.589566786028, 131.3197105294434, 561.4181139452727, 472.2211767971492, 683.2578371386635, 664.1606820770539, 395.70311965144697, 795.785348147436, 445.9068011558445, 1293.0877019606824, 2012.0909808005235, 1387.69253945474, 846.4853105019663, 1023.1902323743932, 1220.6048648953024, 1873.049731320336, 491.7031862773832, 0.004402353691679701, 530.2141826602276, 1006.9050455848046, 1631.719970747457, 3279.6697940845042, 393.92694885773335, 3446.3212021475774, 915.994601102782, 2612.6986046795228, 1674.275663749105, 1649.8579389096467, 971.5382933814903, 699.7751262840663, 1514.6248791345715, 944.8640603655949, 1299.9740812689167, 1873.863170162239, 534.2903775091928, 659.1442165183835, 2237.879559395543, 822.874618475439, 737.3618275688877, 635.1014658285567, 751.5874525135389, 1319.0176972050506, 688.3063562049244, 3148.8741340513807, 2190.7517122114077, 1027.769638302736, 1828.2660319745619, 1385.7419668181124, 780.4950776326968, 0.0, 0.24514464788086343, 2110.454902162426, 2112.6525148379587, 4815.433530416689, 1896.6130129815554, 2185.3210233674145, 137.06602937724506, 3395.482165392523, 1561.6675946898015, 1951.1414074570862, 781.5032723214605, 1046.0743359354892, 1008.3491393717434, 822.1724967179359, 1213.0266256116304, 968.5867164477559, 471.1187659058007, 7.414980508725286e-09, 900.1808177349158, 82.78190846584228, 401.78332561136557, 1921.0499568275918, 1500.3962473892607, 3184.8330096590216, 686.901255595556, 1047.552331684814, 2275.4707678925865, 1062.6577582369578, 833.6700295878566, 1488.129791040345, 2025.5030830893356, 0.0, 0.0, 1072.1085217547516, 764.9943517812479, 1546.480723732518, 1518.889340140624, 722.9428728319929, 2736.2146898851706, 591.1802153593053, 987.5474166191198, 2079.4613012895466, 955.243664083179, 896.1306065871047, 688.9576230295534, 514.8188661291897, 1212.729463449768, 1520.9716166604776, 1507.782866503927, 613.3938372232951, 75.33870976285408, 0.1360115404396538, 15.909625600208528, 3.6957589684953236, 808.7972883516413, 580.3420129627993, 977.257511168209, 1072.9253600498014, 2822.4940746851125, 1024.2658360145685, 1592.3270832953747, 1790.97150209449, 1713.4594074879874, 2551.700122904331, 5.883768899424467, 0.0, 4273.008219372248, 870.4400159376673, 1125.7156780115808, 4531.015711518936, 387.99609938540766, 2470.7796269420533, 1595.6283173981992, 267.2864335428234, 781.0103881891747, 85.23200481596582, 386.8959956843332, 775.8873724161181, 1213.7676040191132, 1737.3709343287867, 832.188101736363, 1191.9689932462393, 1774.0198927263743, 748.549086168874, 280.2387964462208, 213.1001116797264, 708.9733189469473, 569.2550410281788, 942.8325459335811, 646.1702693894724, 2962.1904949299096, 2549.034690378612, 3494.0710229829647, 3079.902290776372, 821.3619871817275, 3065.002028756713, 1509.7815489447112, 185.2353336107044, 2549.089204374235, 1036.3021282590926, 1110.664643097436, 3098.436287111399, 22.06031936117688, 6.965243178019648, 1085.1334570867475, 779.1072242408236, 0.09789017642015096, 183.0058137984218, 899.7975435024465, 376.99970040108144, 933.9395936881886, 1281.9563965803536, 918.3401944615807, 595.0048079397552, 704.3478545400511, 1080.51415323713, 73.81870601546916, 690.8435627149056, 1270.7887195142384, 698.6512364159871, 469.667146308464, 1509.4154460397738, 1541.4005181340035, 2752.922663163685, 3186.6472496911883, 2517.896843561248, 820.6845764834075, 3106.743689857889, 1367.824421338784, 1282.9148582865291, 1439.2272631250576, 1127.5424902387726, 3522.6948523819447, 1296.3514166038658, 22.24997899401933, 99.37337372181298, 0.0, 651.6262790486217, 313.0523747160746, 1683.1543026253112, 1389.7297625582241, 547.2359672184945, 734.9529153887952, 2282.6296852781825, 590.3253478347546, 773.2874734484433, 1026.9899228108663, 537.1754884676901, 1.5743753093198685, 955.1031100815071, 1642.9370114078667, 501.53595627560134, 301.59411337303936, 2061.0049446988105, 3187.068525022827, 3389.1455650059215, 3324.5113508957074, 3116.2598969216633, 1755.6262852404864, 2273.625169957601, 1302.1010734403546, 1275.085066610016, 0.0, 1135.7175587018987, 2982.624186189845, 2717.16483048955, 6.148300116881728, 24.821397566323867, 1623.3643469167873, 3562.253305578837, 1250.6149473556711, 2454.401119810529, 2088.5445584525264, 1093.3686609977835, 1787.9211496438797, 1548.308504922017, 1098.1885296436274, 956.6455207176863, 973.5095827868457, 459.3486320384885, 270.41035906535353, 478.84571883213295, 2096.140050644055, 2397.2082104702677, 1130.1011547710616, 1331.031260671094, 1323.7683105276665, 2405.778125365061, 1606.2429915253379, 2568.396826731924, 3025.006651090225, 1853.7172999291615, 2355.5033970858067, 1412.668517563492, 0.0, 1884.702457574743, 1447.2595660017096, 3948.6198337133974, 0.0, 908.211942079477, 1170.5886037813507, 1398.9300357904685, 961.0999946504019, 2239.3488064010744, 3197.9336966183037, 1627.0138875625294, 1026.7285867890928, 1057.9168916867611, 1227.266892786234, 1922.5478874191176, 1126.133791170083, 1265.3074654258758, 859.2479111370171, 638.2982703202808, 1402.8706475720574, 969.4509301542355, 1276.3542302940957, 2149.7654950961296, 2042.433746356518, 1834.9799828620162, 1454.5834394178573, 841.6082159531961, 1731.6944407789106, 1179.404334999833, 1804.3469738082779, 828.9681559808425, 0.0, 0.0, 652.9369881862447, 754.1144091924879, 3508.6088518397883, 4301.066245786846, 3201.608750696527, 1970.0456286903936, 1508.356225133015, 1238.8206180166453, 1179.112053092978, 1975.8588107763194, 1775.2312413733744, 762.4290815369282, 1275.1484459665685, 1709.8895468670685, 2227.5490755065316, 356.0338613220956, 1643.7824449603127, 2422.9520825096492, 1042.1155542580527, 1830.3426742866322, 1311.1610618521327, 1000.8004679756782, 2238.964196240056, 3376.8915504869647, 1666.7528474491824, 1200.0958467028436, 744.8808199232623, 1223.736074726633, 1380.4112716441539, 2004.4538645579937, 1941.4357543042786, 0.4071540415752679, 266.2832407951355, 342.2005217106554, 777.2710186042823, 1597.659834028338, 2022.0509198602522, 1674.1075050904653, 643.1169086933877, 1139.0597871990858, 1677.121983374773, 1220.563770749749, 1691.4639458707634, 2114.074872327453, 2759.157282489119, 3319.12812402372, 648.1306015760945, 1534.1015856982267, 2726.311737172189, 1320.6113851277623, 702.503200947307, 1119.1108327920083, 1677.4120686892502, 2956.380184333888, 1085.4545975211354, 1246.9945836037555, 1679.046822077975, 1840.9452145910418, 2484.762299191732, 610.7459569465623, 1323.067123961011, 1940.8243281151156, 1937.4257910973392, 327.8482689050361, 0.0, 1105.555647461364, 2785.403263491404, 1953.7281048651785, 376.71738609604336, 2543.208247932318, 3253.851347087184, 3353.6458830243128, 381.52747506391995, 1823.5395600538473, 1474.8033480853992, 1244.4249202981955, 1581.8627767636626, 496.2915980751829, 303.93523865135916, 1121.971016891417, 3118.7387041482143, 1421.6473501508658, 978.6852822310542, 1271.0944829884684, 1573.6827288076388, 1133.6729228727995, 809.115490682656, 880.4081302764826, 1274.5360052181793, 1343.2471620935282, 2631.781721445688, 1350.9365133815409, 2900.3655350772806, 1106.1396149130596, 3083.8066585734487, 694.6925375799728, 0.0, 2287.9587175155975, 7500.892866559327, 5242.75011357246, 1512.4873629454382, 2432.5013817472204, 2152.596832752875, 2617.098959430703, 2131.504768169076, 1649.6450350555656, 3473.2244044523104, 1338.7274640097748, 4034.46499344334, 868.6067458271032, 1293.7110875921096, 1214.3618919309229, 2023.1593894176185, 807.5197543101385, 497.4501244726707, 589.7943145978993, 1317.9177493150817, 1107.1862990547816, 2022.9121742661955, 1787.513271742336, 2952.5230898614473, 1240.7201100488273, 1656.8603085875693, 558.7360021736822, 3944.972226132714, 1553.9403648288544, 2873.734365793, 2792.5573203174645, 0.0, 3077.8727303864434, 3241.177079588537, 3239.068277499173, 846.9467355128304, 1329.0926884423056, 4359.572293547146, 1310.640046195942, 2112.902020067442, 2044.519684470375, 2313.7898956394365, 1002.4471458459099, 3876.0622308444913, 2751.1806326974183, 1322.6175427250564, 1269.9838963068041, 1577.8515589863227, 856.0106452585896, 1385.1175049531157, 1212.3720714823576, 1452.7384134762688, 2520.7704827284906, 1886.9743862876494, 1669.6722595009967, 2003.9886888081382, 3450.1963192954427, 1483.356484447973, 1487.6758457490978, 2575.4936529411934, 3932.824803837634, 1636.9127163628866, 2766.8601655368693, 340.4591034799814, 5390.876926517347, 4711.39861298725, 3727.581163366325, 998.7895308798179, 2566.919870901853, 450.0033168880036, 3232.9620779358083, 2050.292053383426, 4783.333664901555, 1963.2116581271403, 535.8066899543969, 3587.805727591738, 1949.4762864498189, 1818.8392294209916, 1504.3346628426243, 866.6575117988978, 1482.1346118872752, 1975.8082203137456, 1707.9520961372182, 587.3594211814925, 2311.855172288837, 1010.4210219492088, 1950.6688745221663, 1316.7461661415932, 2271.297960795822, 2010.3850813818367, 776.7289653489029, 1138.6389061975758, 3380.3374780715603, 1310.7765545049333, 0.0, 0.0, 3206.228085262701, 5923.138690391555, 4058.6469778537285, 735.5056967032142, 725.8573734609236, 3474.758671558462, 3410.526999924332, 2563.8729683472775, 1706.6573309008963, 1322.8868531383487, 1953.0053674992764, 2065.750628043199, 832.3395920610055, 1379.0573729484279, 2442.250202286219, 843.8664886429575, 3902.8731808587545, 1602.036888145158, 1648.898250291193, 835.3759735290881, 1206.963008973376, 819.6900554167805, 2880.606656717083, 1371.80734009986, 1096.3997947036132, 1289.2550268558164, 1790.9063221315969, 1173.6183889987087, 1028.674125926802, 679.9240433408413, 30.028252501040697, 127.44376201368868, 5502.512045110721, 4236.719624932855, 5063.387716241181, 242.69938757700203, 3752.328196976916, 3579.32991619769, 3415.0857458990067, 1259.3902768250555, 1570.7196125963383, 1828.326485077152, 3137.616107844282, 4914.941712337546, 3765.731249746459, 1728.6155776017806, 1616.300413224272, 3036.7618151660718, 1081.275939389452, 782.5582120195031, 1652.969755876812, 975.2576513767679, 1853.8223835179801, 1418.560174018743, 1066.3151212941575, 2209.7542660403997, 2969.671457723598, 852.3862836800647, 1558.8310929129257, 1463.5847566534358, 1954.826161179464, 332.00495676649007, 2026.5156741680985, 5974.3000328014605, 5954.194148356561, 1026.6639009835199, 2172.4768453389406, 3202.8557739435, 2575.7278959775576, 1520.0113676489855, 2159.036458733768, 3264.7613375671062, 3384.3888295432553, 4072.0524776419625, 4427.164258078672, 2870.317530480679, 1276.4549571888056, 1276.0103306201636, 1700.5589843117168, 2710.8814053490523, 3985.3815235352376, 2004.6599691252923, 1605.8898459530915, 2997.5874167202273, 3408.3895258463454, 3163.7437359180767, 4843.125966707448, 701.1642835183848, 3168.8423576292953, 3106.58633596421, 1245.4127818781947, 52.38718664741464, 0.0, 5893.8399925052, 5427.84684690088, 184.07484773453325, 0.0, 41.56335204746574, 18.30386140756309, 0.0, 347.5987055809237, 480.32066471874714, 1434.1892217816785, 1017.5278205513023, 390.1359130786732, 1635.0485520515504, 2544.962549806325, 4842.265884231776, 3324.3961034221575, 2091.5127312450786, 1019.8824936499773, 2911.14571642601, 3667.5093360676983, 3825.2428512086626, 4638.225776744504, 2546.241217568051, 2706.1915894574486, 3342.31950157358, 1544.4619738920883, 0.0, 901.1871722787619, 2576.0698459092528, 0.0, 0.0, 0.0, 225.08076230157167, 618.1590045252815, 36.127390722816926, 61.066657687930274, 614.9784302781336, 1691.6013281969354, 1232.2929336605594, 0.0, 0.0, 37.03758494369686 ];
green_space = [ 250.07510672556236, 835.4966830089688, 1746.243292329833, 986.4168640784919, 571.7529188253684, 98.90168193355203, 45.27581859193742, 784.7281627329066, 1529.0438990816474, 680.2011502534151, 3201.2566444575787, 1219.7743434635922, 1424.388657222502, 967.2804128248245, 1648.3565074782819, 297.3646214231849, 277.7819918230234, 907.5519829825498, 3034.7303987369523, 503.299844795838, 1.0, 1.0, 558.9261585460044, 5.614463813602924, 1.0, 1379.716836154461, 1153.495639912784, 2258.044668047689, 863.9937829487026, 1509.8773550514015, 1450.6755193527788, 460.6858960352838, 44.227301163133234, 247.44922854192555, 946.8839016743004, 1587.8273960277438, 1062.0229113455862, 1.0, 1.0, 1615.734460326843, 402.7661556811072, 932.3775403220206, 83.33775063231587, 558.7817324660718, 2899.3129623932764, 2796.132683499716, 3571.6576219777344, 2590.162749334704, 1.0069564471486956, 2774.2154520096956, 2202.2891731578857, 10.77, 117.00590693950653, 5565.2750448752195, 1995.7891787099652, 7873.913009913638, 4110.154741653707, 1.0, 249.08745484426618, 920.9636586819543, 3116.209206791129, 1831.6323280588258, 251.054095976986, 2059.969784471672, 1190.0923462007195, 1080.2035489897244, 1911.6046039648354, 4171.31566945184, 1525.8935861736536, 2527.4612363856286, 2456.5095901330933, 918.8267616238445, 407.7059630099684, 2710.267661303282, 1243.9339920539605, 2484.0227598547935, 1687.2054250065703, 1.0, 1.0, 203.23123698146082, 556.0478373132646, 1863.8870280575939, 1001.7663783190073, 2335.5420439299196, 160.77608703868464, 2365.8113544797525, 606.809921791777, 1477.785372821032, 493.24851169623435, 929.583614107687, 100.17296436429024, 2417.8735905596986, 10.04, 548.7722463719547, 654.4240029184148, 130.4260376142338, 143.46817929926328, 1251.2002777606249, 2128.883721727241, 3.446386589668691, 1310.3309651680756, 24.299266580492258, 3056.3402980798855, 988.6621188949794, 307.06895109359175, 1282.8004618054256, 1.0, 604.5725104520097, 1299.3393880464719, 1068.1482267336687, 1726.1989579119254, 395.8934299532557, 258.76370979845524, 3064.460136308451, 1354.6968933430035, 472.31321556307375, 2337.133626895491, 519.1382622979581, 294.78902439400554, 55.38429469615221, 1043.8744461238384, 389.72361113503575, 346.1566485213116, 2584.0553531631595, 525.3400418385863, 1534.7182353702374, 2537.869753492996, 818.093058383558, 857.4696187903173, 1317.5578370895237, 2691.6591197140515, 5581.6449003480375, 1806.497324185446, 5816.017750824685, 3791.767475006054, 256.64903361722827, 1849.7365980572067, 2658.293311661575, 60.00818835943937, 20.751373863313347, 3680.9176422376186, 1088.8221697118133, 2084.6209508362226, 130.36928792309482, 346.7139676597435, 1.0, 1.0, 43.604497618973255, 2439.274713323568, 1221.197478344664, 541.8511796584353, 467.45221206219867, 317.4976847122889, 1663.021864751936, 885.5329285468906, 1219.3739243312739, 2185.842699434608, 1222.2705445797183, 339.92850426235236, 994.4294553538784, 321.1728872405365, 3138.3169559703674, 5277.814257836668, 1036.0749399634078, 525.2144093043171, 2512.504911178723, 5772.032606752997, 5275.565383858513, 2145.436244688928, 1055.5334682015236, 1.0, 1.0, 30.00130407884717, 938.6061002612114, 1817.8516765292734, 349.00567893404514, 109.23015350103378, 1393.6658897544257, 2015.0489026177675, 4047.8253987748176, 666.8395041823387, 191.39279881119728, 217.8219170334669, 1178.562906880863, 1788.3828685125336, 436.9135572053492, 3621.3908373870654, 2261.557215635432, 2514.477889436763, 150.43044700101018, 271.44425543397665, 198.01107411459088, 591.0759938508272, 7468.484476907398, 1978.820196130313, 1590.2872445555404, 6857.77622428257, 6002.437444828451, 4956.4394880235195, 214.4766380963847, 1.0, 283.27956023439765, 1.0, 1.0, 794.7124581132084, 3103.6639781044796, 704.5729870721698, 913.1187662109733, 146.96515947766602, 1458.94124224782, 260.39670706144534, 821.8173835854977, 471.69038021191955, 1114.3766209045425, 1279.6824843045324, 685.3267300978769, 574.6894641276449, 70.98245224636048, 4694.565616339445, 1202.2488477984443, 655.2170703373849, 1183.0756101720035, 3397.7840849645436, 2895.668326749699, 3776.4096411420032, 7829.200491596013, 5966.5600723437965, 1369.6982588768005, 773.0658344674157, 1.0, 1.0, 1.0, 1.0, 1034.1037119235843, 393.5672058612108, 926.0359231890179, 187.57405260484666, 1511.3422928503715, 1365.9179797833785, 370.15098394453526, 257.03131105192006, 288.212575905025, 41.15863290801644, 966.5546211337205, 1443.209529480897, 145.14420213224366, 1614.1460444483673, 7895.014905130491, 918.2792668938637, 1004.2608339637518, 1.0, 315.06501226406544, 5457.276332884561, 1619.7805280112661, 590.1342657133937, 477.02785046957433, 1.0, 133.04290575708728, 1248.5851883366704, 1.0, 1.0, 1.0, 563.4034422338009, 1.0, 893.4606176153757, 875.7849126388319, 28.215168200433254, 348.42846416309476, 713.1374383997172, 1455.7416968066245, 1584.7032040320337, 2671.0095621082, 2593.142714661546, 2478.731322234613, 708.7810767889023, 245.4218548387289, 471.907926408574, 176.36690877750516, 222.45309512037784, 1.0, 18.169600389432162, 536.4902982227504, 1066.384139098227, 642.2274535857141, 1.0, 1.0, 1.0, 16.243814937770367, 574.7942583244294, 471.6662986725569, 1.0, 1.0, 718.7571173328906, 1.0, 329.1344782100059, 74.0136917294003, 1.0, 199.22257099673152, 410.06191275268793, 2101.7264218888013, 982.7428838461637, 2898.9189135550987, 242.2996063902974, 2826.015529597178, 244.27726764418185, 198.70335195027292, 1.0, 642.0181228944566, 3454.509421400726, 1.0, 1.0, 1.0, 3526.3443277626648, 1189.287981448695, 1.0, 574.1100050741807, 1.0, 1.0, 1.0, 1.0, 245.6052418788895, 41.443149492144585, 1.0, 1.0, 258.82028808258474, 1.0, 1.0, 431.04027064563707, 915.7192310392857, 392.84964045882225, 490.14481502538547, 310.81319054600317, 417.48021192103624, 1.0, 117.22802890650928, 1257.0725588030182, 1557.2681755162776, 330.3886805200018, 1.0, 73.10966293886304, 4590.270582951605, 1.0, 270.31555688753724, 1.0, 89.29146925313398, 98.91720666841138, 440.23551986552775, 250.58736594591755, 1762.2525309273042, 440.0334258725634, 1.0, 1.0, 418.5736690503545, 199.62983254622668, 1.0, 1.0, 1.0, 187.29318495839834, 1.0, 1.0, 687.9908527908847, 257.1765929616522, 3087.3824601937085, 1.0, 1.0, 681.6920811631717, 352.9927801024169, 1270.5770144928247, 248.11208081117366, 577.7717135678977, 1.0, 1.0, 272.81679415144026, 1.0, 1.0, 1.0, 466.38780375011265, 122.27163507789373, 1.0, 260.4324644161388, 459.5431666430086, 64.00952940399293, 288.1046225121245, 1.0, 1.0, 1.0, 134.5311032421887, 1.0, 340.4263260960579, 1342.4312373391585, 1.0, 402.3253257498145, 434.0916295852512, 1.0, 129.14163044653833, 1.0, 1063.1211156714708, 2746.9276482183486, 34.287658508867025, 1555.0045894138166, 777.3567141337553, 705.5881241168827, 1.0, 1.0, 2499.312264636392, 2880.6284466274083, 1830.1186925328802, 2365.202000207384, 380.7210342017934, 54.89040940068662, 530.5787988090888, 382.5550242960453, 68.45944632589817, 1.0, 256.27475579455495, 50.060053849592805, 1.0, 1.0, 1.0, 1.0, 1.0, 1.0, 1.0, 1.0, 1.0, 1.0, 121.82680053194053, 1.0, 2139.8348237443715, 1166.2129478739807, 354.33523829001933, 734.7622601373587, 2644.8216779455543, 1908.1230263090692, 99.93054143339396, 1.0, 617.6912801379804, 790.1585140172392, 1570.6922628441826, 2244.0118261280004, 2360.826572418213, 869.1278328485787, 1.0, 338.3529653698206, 36.91975352354348, 1004.002353483811, 1.0, 1.0, 1.0, 1.0, 619.4011601972452, 1.0, 1.0, 1.0, 1.0, 1.0, 1.0, 1.0, 307.540308393538, 844.6343717500567, 1174.998279008083, 467.1144080013037, 1782.0604130625725, 1291.574401235208, 442.9819286054699, 891.0425116294064, 3240.738486002665, 583.3874169238843, 1.0, 288.2789440709166, 47.298798070289195, 1862.9846374224871, 528.123548425734, 805.2448552064598, 206.72630796208978, 556.0394528545439, 141.7446319917217, 110.80144267715514, 1747.592374915257, 1252.9055250082165, 4.825732717523351, 114.37582691386342, 18.612965311855078, 435.74587631970644, 38.86048946157098, 1.0, 1.0, 1.0, 1.0, 1.0, 571.5838833341841, 616.7511818557978, 1351.3065386116505, 193.8826618809253, 749.198383187846, 1906.6253517381847, 73.32349107647315, 487.56823838641867, 2307.9076288649812, 3032.2127828742377, 934.28520770045, 754.5818995083682, 735.2674666941166, 4876.547795713879, 3581.123953574337, 7111.518002063036, 8934.206744074821, 5610.155620098114, 2586.8610488176346, 1.0, 95.6893474329263, 35.93538327515125, 1.0, 1.0, 1.0, 1.0, 1.0, 1.0, 1.0, 1.0, 1.0, 1.0, 540.4018909505103, 384.46124095330015, 1.0, 252.49885314702988, 1060.1021458728064, 1242.0179129932076, 1370.0528456597822, 1.0, 2344.3887895070948, 3825.85172315361, 980.6813930957578, 1.0, 337.94633316993713, 1039.3118316358887, 6861.026057457551, 8014.514770059846, 9604.840889784507, 10000.0, 6301.068491578102, 1.0, 1.0, 255.44963884726167, 1.0, 184.34401424601674, 1.0, 1.0, 1.0, 1.0, 1.0, 1.0, 1.0, 1.0, 1.0, 1.0, 1.0, 1.0, 3711.9973472836427, 1370.2307236101478, 2079.7960062107304, 660.0901514440775, 2257.9898810801096, 1219.8809630852193, 1346.0035007959232, 1.0, 444.24765506898984, 518.7368170851842, 4609.54205249995, 9994.851699882187, 9472.815677040257, 6404.457865400007, 1238.4324237853289, 1.0, 1.0, 35.23443869128823, 310.5036449171603, 1323.9476228561252, 1.0, 1.0, 1.0, 1.0, 1.0, 1.0, 1.0, 456.2186386808753, 1.0, 25.873210228746757, 324.7568951398134, 245.73492150154198, 3.066353246103972, 559.4184959717095, 1149.7012031823397, 573.8827805505134, 1876.3605166245252, 1388.1931479580235, 715.2659978333395, 1.0, 16.36039166757837, 604.3998090219684, 2364.554604436271, 10000.0, 8164.610352396965, 3547.9721207590774, 846.4642295604572, 61.318841932341456, 1710.7124641193077, 1073.7699346914887, 724.6192284596618, 389.2408190020069, 47.850580386817455, 39.97034000977874, 1.0, 1.0, 1.0, 1.0, 269.20838552108034, 160.87444441389198, 1.0, 9.947718024253845, 93.71911779232323, 698.513496030122, 292.1937013529241, 1.0, 669.5797296874225, 586.1903869733214, 579.9906127209542, 12.690846901386976, 1686.3242860592145, 44.7440923191607, 1.0, 1.0, 140.27948259562254, 764.6177336759865, 3213.6776951653883, 3062.440972578246, 770.4262686735019, 83.54201377183199, 280.4178697280586, 25.73411398474127, 1152.732582623721, 957.2085986685343, 237.90701200813055, 506.40579968411475, 245.89621368050575, 1.0, 1.0, 1.0, 208.03636793326586, 1.6413613348267972, 1.000038631782445, 1721.2419715030119, 1.9646074706688523, 314.7212547212839, 12.946780059486628, 461.6668415851891, 1.0, 47.69290916217142, 2001.8854864221066, 650.8138739950955, 2885.760326248128, 778.8995800544508, 553.3859175294638, 24.46630378626287, 46.308721367269754, 644.2006816081703, 1859.172372739762, 3559.017314704135, 1266.446210631053, 121.07313987624366, 514.7607730990276, 273.50234853476286, 1037.8274223291082, 647.136144428514, 465.0283241290599, 1894.459889427293, 205.85454167342687, 1.0, 1465.7118914164603, 840.8208803562447, 1.0, 1.0, 267.12873772601597, 1755.08470995666, 1771.8731841262197, 275.3993553519249, 1.0, 1.0, 1437.1919521838427, 1189.6279909587465, 5635.810645265505, 2043.5139279572759, 591.0801786952652, 4130.733858083375, 1079.9540305400733, 101.32654208689928, 3978.87337970268, 5008.307313552126, 499.9195359637961, 1.0, 248.99887840263546, 2013.8548116981983, 638.7864412367344, 1.0, 289.71803048066795, 108.69971089065075, 459.1444187127054, 3080.3124629594386, 1.0, 770.3456785231829, 3050.773830859689, 1153.890694571659, 202.40350810438395, 1277.3400470017223, 544.3826592583209, 1066.8288185764104, 1.0, 292.25885516032577, 191.33405094593763, 1.0, 2648.6221597557887, 5010.890977087081, 419.7505305008963, 1.0, 897.7466233259765, 1747.0946160070598, 1518.4688189807348, 1.0, 1793.7297561876476, 35.77575952606276, 1253.5443530641496, 942.8545306499582, 947.8358943806961, 333.3189607709646, 1156.8078955300152, 1553.4802185352892, 1947.3566312287003, 1864.1583164967597, 1.0, 973.14239275828, 1.0, 1.0, 1.0, 524.908703552559, 1.0, 100.30326894018799, 572.392118204385, 396.8367804065347, 834.6252641979372, 575.8593768496066, 1297.0620540976524, 2270.697884839028, 1.0, 716.22213986516, 7193.38975019753, 1067.5246002916247, 742.3694589580409, 2031.5814610309899, 1312.4987474842928, 1.0, 344.15473346970975, 896.9970554667525, 2535.869524527341, 1744.6840022264514, 1.0, 51.74617312848568, 6328.428658416495, 5265.765539849643, 2751.119464861229, 2046.116241024807, 1.0, 1.0, 474.6589891985059, 413.9596316148527, 275.8946389555931, 152.7719956226647, 160.90734733641148, 521.1908191320254, 1694.7109663970768, 3.8011881690472364, 110.0124928719597, 1021.6083531850018, 48.07208458520472, 3890.7614001398906, 2781.2994863623753, 264.15084113087505, 1.0, 1.0, 2663.8610876682214, 479.374862620607, 1680.5640880647115, 1.0, 352.0766477951547, 658.9649441801012, 303.61865612864494, 851.8692404478788, 4788.627340905368, 8591.549253188074, 3852.7993935933337, 3121.713040188886, 1.0, 160.13757029175758, 781.7254877779633, 1010.2061778437346, 1355.7629372896627, 489.9268731214106, 205.95697260275483, 158.3856272622943, 841.2187867981847, 1077.5056098811328, 1402.799927261658, 1319.3148122712737, 907.5808829161106, 7563.58143291343, 430.1388469263911, 1885.8097546613426, 1659.6016884320416, 687.6082624327391, 1.0, 2206.5942714777775, 2720.6152910077944, 1887.4623305122368, 84.40099996328354, 1.0, 294.25283289246727, 127.99400787334889, 4177.651188498829, 3547.139136618469, 9275.142626488116, 5594.299079418182, 4881.31988164736, 2083.604960491881, 1071.4926274167374, 532.8792497254908, 188.41618251241744, 381.2504768575309, 965.3887127132621, 1088.1804893300869, 1139.0944068906829, 468.4852692000568, 1563.2504897238687, 3500.9413917688653, 4070.4923965111375, 425.3561224080622, 2074.506715686992, 7480.154969263822, 1445.8665711171925, 1434.6765205971897, 2552.1172835782636, 3307.357500761398, 895.9702141266316, 809.8090049568564, 3341.6676867839415, 4336.927803596947, 704.2729228436947, 86.33750246465206, 1169.9125888338313, 3569.5530123789795, 942.9128802772611, 7671.750007212162, 2019.6094544641674, 2682.224512508372, 1293.0895894975401, 2787.4363680528477, 187.96774006262422, 4124.739573260304, 1931.8698674696498, 3165.9912465238012, 1537.6160142403096, 2853.1970333177596, 1.0, 327.04369756020606, 489.8536451915279, 1705.8285645209253, 762.4938067011535, 1.0, 3035.5751811414957, 774.485732158646, 948.4761350005865, 3171.8921893686056, 4778.384747609496, 2897.2298524044454, 4742.8564895363525, 1549.520453660749, 4357.997696369886, 997.2638915921561, 752.8258281050948, 4025.0792168055195, 3835.0108583406545, 2494.7306469231844, 4745.491927057505, 3177.759693980217, 3281.1846648748033, 1130.8071583891287, 659.4393323455006, 2583.390066958498, 2028.4967405474745, 2423.4378685094416, 1219.1540711969137, 918.8631119811907, 130.03290075436234, 1485.9532873183489, 1125.01253469754, 1053.7904628179967, 1244.3682202789932, 203.71988417766988, 940.4155670702457, 2737.017045549699, 1496.2882802654058, 3320.117914134171, 2612.437775079161, 2887.355109562166, 5558.286176317371, 4582.697883607121, 494.2713926201686, 364.0661078635603, 9.960268450900912, 1076.947064332373, 715.3446597792208, 1.0, 222.13878134824336, 154.10327849257737, 414.01737531926483, 457.10762060061097, 835.6138639808632, 967.683960929513, 568.0913351112977, 744.2948986082338, 61.781863815151155, 1161.314400728792, 2055.6200083140284, 2109.655639594421, 2499.6628766804934, 2481.053937792545, 764.9210350513458, 2938.6013118736446, 1354.2239576940847, 1719.701294614235, 3732.6716840919107, 2567.1109773311764, 2934.215643569827, 2048.1162969374564, 1026.516625390388, 1.0, 767.2428874776233, 80.25086789950728, 138.65, 467.956863489002, 228.33697704877704, 677.600044417195, 1098.982673718594, 1518.3327780719846, 2651.3198472708464, 1424.9623343977146, 2564.800848356521, 1088.2844308735803, 1.0, 1.0, 1.0 ];
num_areas = [ 1.0, 2.0, 3.0, 2.0, 2.0, 1.0, 1.0, 7.0, 20.0, 8.0, 8.0, 13.0, 7.0, 4.0, 6.0, 4.0, 1.0, 6.0, 9.0, 7.0, 10.0, 12.0, 10.0, 8.0, 7.0, 8.0, 12.0, 11.0, 2.0, 3.0, 4.0, 1.0, 1.0, 1.0, 6.0, 4.0, 2.0, 13.0, 15.0, 10.0, 14.0, 15.0, 11.0, 8.0, 15.0, 5.0, 5.0, 12.0, 5.0, 2.0, 5.0, 0.0, 1.0, 12.0, 7.0, 3.0, 5.0, 6.0, 8.0, 8.0, 14.0, 24.0, 24.0, 23.0, 26.0, 7.0, 5.0, 10.0, 12.0, 7.0, 10.0, 3.0, 9.0, 15.0, 12.0, 6.0, 7.0, 5.0, 16.0, 21.0, 26.0, 14.0, 32.0, 11.0, 24.0, 13.0, 8.0, 14.0, 15.0, 7.0, 12.0, 9.0, 0.0, 2.0, 11.0, 6.0, 8.0, 7.0, 14.0, 14.0, 27.0, 21.0, 9.0, 17.0, 15.0, 3.0, 18.0, 18.0, 13.0, 13.0, 11.0, 18.0, 19.0, 15.0, 4.0, 1.0, 7.0, 9.0, 13.0, 5.0, 12.0, 8.0, 13.0, 16.0, 20.0, 15.0, 14.0, 11.0, 12.0, 14.0, 4.0, 13.0, 15.0, 9.0, 2.0, 14.0, 13.0, 8.0, 1.0, 1.0, 4.0, 6.0, 7.0, 13.0, 8.0, 6.0, 8.0, 8.0, 10.0, 15.0, 17.0, 7.0, 11.0, 11.0, 10.0, 13.0, 5.0, 16.0, 18.0, 12.0, 12.0, 7.0, 9.0, 3.0, 4.0, 11.0, 12.0, 11.0, 10.0, 9.0, 10.0, 10.0, 8.0, 16.0, 10.0, 9.0, 21.0, 14.0, 5.0, 8.0, 7.0, 17.0, 36.0, 19.0, 22.0, 22.0, 12.0, 5.0, 6.0, 1.0, 1.0, 3.0, 7.0, 10.0, 6.0, 6.0, 6.0, 3.0, 3.0, 6.0, 11.0, 11.0, 8.0, 20.0, 13.0, 10.0, 8.0, 11.0, 17.0, 16.0, 27.0, 18.0, 11.0, 13.0, 6.0, 12.0, 7.0, 1.0, 2.0, 5.0, 4.0, 4.0, 7.0, 6.0, 11.0, 9.0, 4.0, 6.0, 9.0, 6.0, 4.0, 7.0, 5.0, 15.0, 24.0, 14.0, 20.0, 22.0, 14.0, 11.0, 11.0, 22.0, 7.0, 11.0, 7.0, 2.0, 2.0, 4.0, 9.0, 9.0, 5.0, 7.0, 6.0, 13.0, 11.0, 10.0, 4.0, 11.0, 8.0, 5.0, 4.0, 8.0, 9.0, 22.0, 9.0, 23.0, 9.0, 13.0, 15.0, 12.0, 17.0, 14.0, 7.0, 8.0, 4.0, 2.0, 6.0, 5.0, 9.0, 8.0, 4.0, 8.0, 4.0, 4.0, 5.0, 4.0, 3.0, 11.0, 9.0, 14.0, 9.0, 11.0, 15.0, 4.0, 5.0, 7.0, 15.0, 18.0, 14.0, 11.0, 4.0, 10.0, 8.0, 12.0, 6.0, 1.0, 1.0, 6.0, 6.0, 7.0, 6.0, 3.0, 8.0, 8.0, 8.0, 18.0, 16.0, 19.0, 16.0, 24.0, 14.0, 14.0, 10.0, 13.0, 16.0, 8.0, 9.0, 15.0, 19.0, 16.0, 8.0, 17.0, 8.0, 12.0, 17.0, 18.0, 17.0, 2.0, 0.0, 6.0, 8.0, 4.0, 7.0, 9.0, 10.0, 7.0, 9.0, 29.0, 26.0, 16.0, 15.0, 13.0, 19.0, 17.0, 9.0, 16.0, 12.0, 8.0, 10.0, 19.0, 16.0, 15.0, 15.0, 16.0, 12.0, 12.0, 28.0, 20.0, 14.0, 6.0, 2.0, 5.0, 4.0, 6.0, 8.0, 10.0, 9.0, 11.0, 7.0, 16.0, 25.0, 19.0, 9.0, 9.0, 11.0, 11.0, 8.0, 9.0, 4.0, 8.0, 22.0, 19.0, 16.0, 14.0, 17.0, 11.0, 12.0, 13.0, 23.0, 27.0, 25.0, 12.0, 0.0, 4.0, 7.0, 10.0, 2.0, 7.0, 8.0, 8.0, 13.0, 13.0, 14.0, 16.0, 22.0, 18.0, 14.0, 13.0, 7.0, 11.0, 2.0, 3.0, 8.0, 10.0, 14.0, 12.0, 12.0, 18.0, 13.0, 14.0, 17.0, 23.0, 16.0, 9.0, 1.0, 0.0, 4.0, 7.0, 8.0, 5.0, 9.0, 7.0, 12.0, 11.0, 12.0, 11.0, 14.0, 6.0, 10.0, 13.0, 9.0, 5.0, 8.0, 5.0, 4.0, 5.0, 7.0, 5.0, 11.0, 7.0, 10.0, 10.0, 11.0, 7.0, 10.0, 17.0, 8.0, 2.0, 0.0, 2.0, 7.0, 5.0, 7.0, 13.0, 9.0, 13.0, 7.0, 8.0, 10.0, 14.0, 21.0, 15.0, 22.0, 17.0, 11.0, 11.0, 9.0, 8.0, 18.0, 7.0, 9.0, 11.0, 11.0, 13.0, 5.0, 3.0, 5.0, 11.0, 10.0, 12.0, 3.0, 3.0, 3.0, 5.0, 8.0, 3.0, 3.0, 4.0, 4.0, 2.0, 7.0, 20.0, 15.0, 14.0, 23.0, 14.0, 14.0, 14.0, 12.0, 8.0, 16.0, 10.0, 10.0, 7.0, 11.0, 19.0, 9.0, 5.0, 12.0, 10.0, 5.0, 13.0, 2.0, 5.0, 16.0, 2.0, 4.0, 5.0, 5.0, 0.0, 3.0, 7.0, 8.0, 17.0, 13.0, 16.0, 15.0, 12.0, 17.0, 17.0, 12.0, 5.0, 14.0, 9.0, 7.0, 10.0, 18.0, 13.0, 11.0, 9.0, 11.0, 10.0, 9.0, 11.0, 3.0, 0.0, 13.0, 2.0, 3.0, 1.0, 2.0, 4.0, 7.0, 14.0, 8.0, 14.0, 16.0, 12.0, 9.0, 20.0, 17.0, 18.0, 15.0, 11.0, 13.0, 19.0, 12.0, 16.0, 12.0, 19.0, 15.0, 12.0, 15.0, 12.0, 26.0, 14.0, 5.0, 0.0, 7.0, 10.0, 3.0, 0.0, 4.0, 12.0, 7.0, 7.0, 14.0, 22.0, 21.0, 16.0, 20.0, 24.0, 16.0, 9.0, 20.0, 13.0, 20.0, 16.0, 14.0, 17.0, 14.0, 20.0, 10.0, 9.0, 23.0, 19.0, 19.0, 13.0, 13.0, 1.0, 0.0, 4.0, 9.0, 3.0, 6.0, 8.0, 7.0, 4.0, 5.0, 15.0, 22.0, 23.0, 9.0, 21.0, 19.0, 12.0, 6.0, 8.0, 18.0, 13.0, 14.0, 13.0, 12.0, 10.0, 12.0, 14.0, 21.0, 17.0, 21.0, 32.0, 25.0, 17.0, 2.0, 2.0, 6.0, 7.0, 8.0, 6.0, 9.0, 10.0, 16.0, 9.0, 24.0, 30.0, 13.0, 11.0, 10.0, 10.0, 8.0, 11.0, 14.0, 11.0, 14.0, 21.0, 11.0, 17.0, 11.0, 27.0, 20.0, 13.0, 22.0, 26.0, 16.0, 10.0, 3.0, 0.0, 10.0, 5.0, 5.0, 6.0, 10.0, 7.0, 7.0, 8.0, 18.0, 22.0, 19.0, 9.0, 11.0, 15.0, 12.0, 7.0, 14.0, 20.0, 12.0, 18.0, 20.0, 16.0, 16.0, 17.0, 16.0, 12.0, 18.0, 12.0, 12.0, 7.0, 4.0, 0.0, 7.0, 4.0, 4.0, 8.0, 8.0, 15.0, 8.0, 12.0, 9.0, 7.0, 18.0, 8.0, 15.0, 16.0, 21.0, 8.0, 13.0, 12.0, 12.0, 8.0, 20.0, 20.0, 17.0, 13.0, 15.0, 17.0, 14.0, 8.0, 13.0, 14.0, 2.0, 0.0, 4.0, 6.0, 4.0, 10.0, 6.0, 4.0, 8.0, 8.0, 8.0, 12.0, 18.0, 9.0, 8.0, 11.0, 19.0, 19.0, 25.0, 29.0, 18.0, 15.0, 8.0, 8.0, 14.0, 13.0, 8.0, 24.0, 15.0, 16.0, 8.0, 13.0, 5.0, 1.0, 6.0, 5.0, 3.0, 5.0, 2.0, 6.0, 5.0, 5.0, 3.0, 9.0, 18.0, 6.0, 8.0, 19.0, 19.0, 19.0, 18.0, 18.0, 12.0, 14.0, 11.0, 3.0, 17.0, 23.0, 26.0, 29.0, 15.0, 14.0, 14.0, 10.0, 1.0, 0.0, 1.0, 4.0, 3.0, 3.0, 6.0, 2.0, 4.0, 7.0, 7.0, 23.0, 10.0, 8.0, 6.0, 17.0, 18.0, 20.0, 9.0, 12.0, 19.0, 16.0, 13.0, 8.0, 11.0, 26.0, 20.0, 26.0, 10.0, 28.0, 13.0, 6.0, 2.0, 2.0, 2.0, 2.0, 2.0, 6.0, 4.0, 6.0, 6.0, 4.0, 14.0, 13.0, 8.0, 2.0, 10.0, 14.0, 17.0, 10.0, 32.0, 18.0, 11.0, 17.0, 17.0, 27.0, 17.0, 7.0, 9.0, 8.0, 25.0, 18.0, 7.0, 6.0, 3.0, 2.0, 1.0, 4.0, 2.0, 6.0, 4.0, 11.0, 7.0, 8.0, 7.0, 3.0, 4.0, 10.0, 20.0, 19.0, 24.0, 12.0, 14.0, 16.0, 14.0, 9.0, 6.0, 8.0, 6.0, 10.0, 2.0, 11.0, 20.0, 4.0, 0.0, 1.0, 2.0, 4.0, 1.0, 2.0, 2.0, 1.0, 5.0, 4.0, 2.0, 6.0, 3.0, 6.0, 7.0, 3.0, 4.0, 20.0, 13.0, 16.0, 13.0, 10.0, 7.0, 8.0, 11.0, 14.0, 6.0, 0.0, 2.0, 3.0, 1.0, 1.0, 1.0, 3.0, 3.0, 5.0, 3.0, 6.0, 8.0, 5.0, 1.0, 0.0, 1.0 ];
num_trees = [ 1.0, 1.0, 1.0, 1.0, 1.0, 1.0, 1.0, 1.0, 1.0, 1.0, 1.0, 1.0, 1.0, 1.0, 1.0, 1.0, 1.0, 1.0, 2.0, 1.0, 1.0, 1.0, 1.0, 1.0, 1.0, 1.0, 1.0, 1.0, 1.0, 1.0, 1.0, 1.0, 1.0, 1.0, 1.0, 7.0, 1.0, 1.0, 1.0, 1.0, 1.0, 1.0, 1.0, 1.0, 1.0, 1.0, 1.0, 1.0, 1.0, 10.0, 1.0, 1.0, 1.0, 1.0, 4.0, 1.0, 1.0, 1.0, 1.0, 1.0, 1.0, 1.0, 1.0, 1.0, 1.0, 1.0, 1.0, 1.0, 1.0, 1.0, 1.0, 1.0, 1.0, 1.0, 2.0, 1.0, 1.0, 1.0, 1.0, 1.0, 1.0, 1.0, 1.0, 1.0, 1.0, 1.0, 1.0, 1.0, 1.0, 1.0, 1.0, 1.0, 1.0, 1.0, 1.0, 1.0, 2.0, 1.0, 1.0, 1.0, 1.0, 1.0, 1.0, 1.0, 1.0, 1.0, 1.0, 1.0, 1.0, 1.0, 1.0, 1.0, 1.0, 1.0, 1.0, 1.0, 1.0, 1.0, 1.0, 9.0, 1.0, 1.0, 1.0, 1.0, 1.0, 1.0, 1.0, 1.0, 1.0, 1.0, 1.0, 1.0, 1.0, 1.0, 1.0, 1.0, 8.0, 1.0, 1.0, 1.0, 1.0, 5.0, 12.0, 1.0, 3.0, 1.0, 1.0, 1.0, 1.0, 1.0, 1.0, 1.0, 6.0, 1.0, 1.0, 1.0, 1.0, 1.0, 1.0, 1.0, 2.0, 4.0, 1.0, 1.0, 1.0, 7.0, 1.0, 7.0, 1.0, 1.0, 1.0, 1.0, 1.0, 1.0, 1.0, 1.0, 1.0, 5.0, 1.0, 1.0, 1.0, 1.0, 1.0, 1.0, 1.0, 1.0, 1.0, 1.0, 1.0, 1.0, 1.0, 1.0, 11.0, 1.0, 1.0, 1.0, 1.0, 1.0, 1.0, 1.0, 1.0, 1.0, 1.0, 1.0, 9.0, 1.0, 7.0, 1.0, 1.0, 1.0, 1.0, 1.0, 1.0, 1.0, 1.0, 1.0, 1.0, 1.0, 1.0, 1.0, 3.0, 1.0, 1.0, 1.0, 1.0, 1.0, 1.0, 1.0, 1.0, 1.0, 1.0, 1.0, 1.0, 1.0, 1.0, 1.0, 1.0, 1.0, 1.0, 1.0, 1.0, 1.0, 1.0, 1.0, 1.0, 1.0, 1.0, 1.0, 1.0, 1.0, 1.0, 1.0, 1.0, 1.0, 1.0, 1.0, 1.0, 1.0, 1.0, 1.0, 1.0, 1.0, 1.0, 1.0, 1.0, 1.0, 1.0, 1.0, 1.0, 1.0, 1.0, 8.0, 1.0, 1.0, 14.0, 1.0, 1.0, 3.0, 3.0, 1.0, 1.0, 1.0, 11.0, 5.0, 1.0, 1.0, 1.0, 1.0, 1.0, 1.0, 1.0, 1.0, 1.0, 1.0, 1.0, 1.0, 1.0, 1.0, 1.0, 1.0, 1.0, 13.0, 1.0, 1.0, 48.0, 2.0, 1.0, 1.0, 1.0, 1.0, 1.0, 1.0, 1.0, 1.0, 4.0, 1.0, 1.0, 1.0, 1.0, 1.0, 1.0, 1.0, 1.0, 1.0, 1.0, 1.0, 1.0, 1.0, 1.0, 1.0, 1.0, 1.0, 1.0, 4.0, 1.0, 1.0, 2.0, 8.0, 1.0, 1.0, 1.0, 1.0, 1.0, 4.0, 20.0, 1.0, 2.0, 1.0, 1.0, 1.0, 1.0, 1.0, 1.0, 1.0, 1.0, 1.0, 1.0, 1.0, 7.0, 6.0, 1.0, 1.0, 1.0, 1.0, 1.0, 1.0, 1.0, 1.0, 1.0, 1.0, 1.0, 1.0, 1.0, 1.0, 1.0, 33.0, 3.0, 1.0, 11.0, 1.0, 1.0, 1.0, 1.0, 1.0, 1.0, 1.0, 1.0, 1.0, 1.0, 1.0, 1.0, 1.0, 1.0, 1.0, 1.0, 1.0, 1.0, 1.0, 1.0, 1.0, 1.0, 1.0, 1.0, 1.0, 1.0, 1.0, 1.0, 4.0, 1.0, 1.0, 1.0, 1.0, 1.0, 1.0, 1.0, 1.0, 1.0, 1.0, 1.0, 1.0, 1.0, 1.0, 1.0, 1.0, 1.0, 1.0, 1.0, 1.0, 1.0, 1.0, 1.0, 1.0, 1.0, 6.0, 1.0, 1.0, 1.0, 1.0, 2.0, 6.0, 1.0, 1.0, 1.0, 1.0, 1.0, 1.0, 1.0, 1.0, 1.0, 1.0, 1.0, 1.0, 1.0, 1.0, 1.0, 1.0, 1.0, 1.0, 1.0, 2.0, 16.0, 16.0, 9.0, 4.0, 1.0, 6.0, 3.0, 1.0, 1.0, 1.0, 1.0, 1.0, 1.0, 1.0, 1.0, 1.0, 3.0, 1.0, 1.0, 11.0, 1.0, 1.0, 1.0, 1.0, 1.0, 1.0, 1.0, 6.0, 1.0, 1.0, 1.0, 1.0, 5.0, 7.0, 6.0, 1.0, 3.0, 22.0, 6.0, 1.0, 1.0, 1.0, 1.0, 1.0, 2.0, 1.0, 1.0, 1.0, 4.0, 1.0, 1.0, 14.0, 4.0, 1.0, 1.0, 1.0, 1.0, 1.0, 1.0, 5.0, 1.0, 1.0, 1.0, 4.0, 10.0, 1.0, 1.0, 1.0, 5.0, 6.0, 13.0, 19.0, 1.0, 1.0, 1.0, 1.0, 1.0, 1.0, 1.0, 1.0, 1.0, 1.0, 1.0, 1.0, 2.0, 1.0, 2.0, 2.0, 1.0, 1.0, 1.0, 1.0, 1.0, 1.0, 1.0, 1.0, 1.0, 1.0, 1.0, 1.0, 1.0, 1.0, 1.0, 17.0, 5.0, 1.0, 1.0, 1.0, 1.0, 1.0, 1.0, 1.0, 1.0, 1.0, 1.0, 1.0, 1.0, 1.0, 2.0, 1.0, 1.0, 1.0, 1.0, 1.0, 1.0, 1.0, 1.0, 1.0, 1.0, 1.0, 1.0, 1.0, 1.0, 1.0, 1.0, 1.0, 14.0, 1.0, 1.0, 1.0, 1.0, 1.0, 1.0, 1.0, 1.0, 1.0, 1.0, 1.0, 1.0, 1.0, 1.0, 1.0, 1.0, 1.0, 1.0, 1.0, 1.0, 1.0, 1.0, 1.0, 1.0, 1.0, 1.0, 1.0, 1.0, 1.0, 1.0, 1.0, 5.0, 1.0, 1.0, 1.0, 1.0, 1.0, 1.0, 1.0, 4.0, 1.0, 1.0, 1.0, 1.0, 1.0, 1.0, 1.0, 1.0, 1.0, 5.0, 1.0, 1.0, 1.0, 1.0, 3.0, 5.0, 1.0, 1.0, 1.0, 1.0, 1.0, 1.0, 1.0, 1.0, 1.0, 1.0, 1.0, 1.0, 1.0, 1.0, 1.0, 1.0, 1.0, 1.0, 1.0, 1.0, 1.0, 1.0, 1.0, 1.0, 1.0, 1.0, 1.0, 1.0, 1.0, 1.0, 1.0, 1.0, 1.0, 1.0, 1.0, 1.0, 1.0, 1.0, 1.0, 1.0, 4.0, 1.0, 1.0, 1.0, 4.0, 9.0, 1.0, 6.0, 1.0, 1.0, 1.0, 1.0, 1.0, 1.0, 1.0, 1.0, 1.0, 1.0, 1.0, 1.0, 1.0, 1.0, 1.0, 1.0, 1.0, 1.0, 1.0, 1.0, 1.0, 1.0, 1.0, 1.0, 1.0, 1.0, 1.0, 1.0, 2.0, 15.0, 1.0, 1.0, 1.0, 1.0, 1.0, 5.0, 1.0, 1.0, 1.0, 1.0, 1.0, 1.0, 1.0, 6.0, 9.0, 1.0, 1.0, 1.0, 1.0, 1.0, 1.0, 1.0, 1.0, 1.0, 1.0, 1.0, 1.0, 1.0, 1.0, 1.0, 1.0, 1.0, 2.0, 1.0, 1.0, 1.0, 1.0, 19.0, 1.0, 1.0, 1.0, 1.0, 1.0, 1.0, 1.0, 1.0, 1.0, 1.0, 1.0, 1.0, 1.0, 1.0, 1.0, 1.0, 1.0, 1.0, 1.0, 1.0, 1.0, 1.0, 1.0, 1.0, 1.0, 2.0, 2.0, 1.0, 1.0, 1.0, 16.0, 4.0, 1.0, 5.0, 1.0, 1.0, 1.0, 1.0, 1.0, 1.0, 1.0, 1.0, 1.0, 1.0, 1.0, 1.0, 1.0, 1.0, 1.0, 1.0, 1.0, 1.0, 1.0, 1.0, 1.0, 1.0, 1.0, 1.0, 1.0, 1.0, 1.0, 1.0, 5.0, 12.0, 1.0, 1.0, 1.0, 1.0, 1.0, 1.0, 1.0, 1.0, 1.0, 1.0, 1.0, 1.0, 1.0, 1.0, 1.0, 1.0, 1.0, 15.0, 1.0, 1.0, 1.0, 1.0, 1.0, 1.0, 1.0, 1.0, 1.0, 1.0, 1.0, 1.0, 17.0, 1.0, 1.0, 1.0, 1.0, 2.0, 1.0, 1.0, 1.0, 1.0, 1.0, 1.0, 1.0, 1.0, 1.0, 1.0, 1.0, 1.0, 20.0, 1.0, 1.0, 1.0, 1.0, 1.0, 1.0, 1.0, 1.0, 1.0, 1.0, 1.0, 8.0, 1.0, 1.0, 1.0, 1.0, 1.0, 1.0, 1.0, 1.0, 1.0, 1.0, 1.0, 1.0, 1.0, 1.0, 1.0, 1.0, 1.0, 20.0, 1.0, 1.0, 1.0, 1.0, 1.0, 1.0, 1.0, 1.0, 1.0, 1.0, 1.0, 1.0, 1.0, 1.0, 1.0, 1.0, 6.0, 3.0, 1.0, 1.0, 2.0, 1.0, 8.0, 1.0, 1.0, 8.0, 12.0, 4.0, 1.0, 1.0, 14.0, 1.0, 1.0, 1.0, 1.0, 1.0, 1.0, 1.0, 1.0, 1.0, 1.0, 1.0, 1.0, 8.0, 2.0, 1.0, 1.0 ];
macro_factors = [ 0.08817397058571487, 0.7167640565207816, 0.5241235314047236, 0.34619194384199015, 0.16592178340083358, 0.01566609556657212, 0.006197619251844992, 0.6128842594537165, 0.824722889294141, 0.7856775450511851, 0.7843341875381808, 0.7843341875381808, 0.7551361029295481, 0.5967488183216456, 0.4198413050267506, 0.2370464069834692, 0.05847879274411838, 0.3816435887588105, 0.8294060920957036, 0.8294060920957036, 0.8030798213342023, 0.7843341875381808, 0.7843341875381808, 0.7843341875381808, 0.7843341875381808, 0.7843341875381808, 0.7843341875381808, 0.7807683425046297, 0.6607387784276679, 0.484809189239212, 0.3123516782601084, 0.14316745563123728, 0.008963094966691839, 0.16296144323275788, 0.8099483242759514, 0.8294060920957036, 0.8294060920957036, 0.8242681791878514, 0.7855765399237473, 0.7843341875381808, 0.7843341875381808, 0.7843341875381808, 0.7843341875381808, 0.7843341875381808, 0.7843341875381808, 0.7843341875381808, 0.7843341875381808, 0.7843341875381808, 0.7843341875381808, 0.7579785118427912, 0.5563988819750775, 0.0008444392231585353, 0.029060102925172845, 0.6949375375537161, 0.8294060920957036, 0.8294060920957036, 0.8294060920957036, 0.8294060920957036, 0.8032653817185781, 0.7843341875381808, 0.7843341875381808, 0.7843341875381808, 0.7843341875381808, 0.7843341875381808, 0.7843341875381808, 0.7843341875381808, 0.7843341875381808, 0.7843341875381808, 0.7843341875381808, 0.7843341875381808, 0.7843341875381808, 0.22217297333047906, 0.47631482474286385, 0.8294060920957036, 0.8294060920957036, 0.8294060920957036, 0.8294060920957036, 0.8294060920957036, 0.8243139968423473, 0.7854477992063008, 0.7843341875381808, 0.7843341875381808, 0.7843341875381808, 0.7843341875381808, 0.7843341875381808, 0.7843341875381808, 0.7843341875381808, 0.7843341875381808, 0.7843341875381808, 0.7843341875381808, 0.7843341875381808, 0.606548044960748, 0.0007873689229561682, 0.24596574152681397, 0.8263255267411304, 0.8294060920957036, 0.8294060920957036, 0.8294060920957036, 0.8294060920957036, 0.8294060920957036, 0.8294060920957036, 0.8023024011863258, 0.7843341875381808, 0.7843341875381808, 0.7843341875381808, 0.7843341875381808, 0.7843341875381808, 0.7843341875381808, 0.7843341875381808, 0.7843341875381808, 0.7843341875381808, 0.7843341875381808, 0.7843341875381808, 0.7843341875381808, 0.23746452821501135, 0.07687413322112846, 0.7722392417360018, 0.8294060920957036, 0.8294060920957036, 0.8294060920957036, 0.8294060920957036, 0.8294060920957036, 0.8294060920957036, 0.8294060920957036, 0.8234852977346907, 0.7851397655614922, 0.7843341875381808, 0.7843341875381808, 0.7843341875381808, 0.7843341875381808, 0.7843341875381808, 0.7843341875381808, 0.7843341875381808, 0.7843341875381808, 0.7843341875381808, 0.7843341875381808, 0.7843341875381808, 0.6511053509418271, 0.008351037661205516, 0.001767006657148407, 0.5814144677899082, 0.8294060920957036, 0.8294060920957036, 0.8294060920957036, 0.8294060920957036, 0.8294060920957036, 0.8294060920957036, 0.8294060920957036, 0.8294060920957036, 0.8294060920957036, 0.8015824497573, 0.7843341875381808, 0.7843341875381808, 0.7843341875381808, 0.7843341875381808, 0.7843341875381808, 0.7843341875381808, 0.7843341875381808, 0.7843341875381808, 0.7843341875381808, 0.7843341875381808, 0.7843341875381808, 0.7843341875381808, 0.2979106769935663, 0.3445967986002989, 0.8294060920957036, 0.8294060920957036, 0.8294060920957036, 0.8294060920957036, 0.8294060920957036, 0.8294060920957036, 0.8294060920957036, 0.8294060920957036, 0.8294060920957036, 0.8294060920957036, 0.8229334016038429, 0.7848386694865973, 0.7843341875381808, 0.7843341875381808, 0.7843341875381808, 0.7843341875381808, 0.7843341875381808, 0.7843341875381808, 0.7843341875381808, 0.7843341875381808, 0.7843341875381808, 0.7843341875381808, 0.7843341875381808, 0.6964660023337294, 0.027029512130934786, 0.13722673368168795, 0.800397145525255, 0.8294060920957036, 0.8294060920957036, 0.8294060920957036, 0.8294060920957036, 0.8294060920957036, 0.8294060920957036, 0.8294060920957036, 0.8294060920957036, 0.8294060920957036, 0.8294060920957036, 0.8294060920957036, 0.7998326583844881, 0.7843250759119081, 0.7803895508365774, 0.7727266902844709, 0.7642981629031591, 0.7806125449646746, 0.7843341875381808, 0.7843341875381808, 0.7843341875381808, 0.7843341875381808, 0.7843341875381808, 0.7843341875381808, 0.7843341875381808, 0.36284469588771956, 0.018287015835865877, 0.6653193400977543, 0.8294060920957036, 0.8294060920957036, 0.8294060920957036, 0.8294060920957036, 0.8294060920957036, 0.8294060920957036, 0.8294060920957036, 0.8294060920957036, 0.8294060920957036, 0.8294060920957036, 0.8295193061799706, 0.8370034212724565, 0.8322349016409667, 0.7615554038116378, 0.7582871336832001, 0.7582871336832001, 0.7582871336832001, 0.7623936648690192, 0.7831038375649965, 0.7843341875381808, 0.7843341875381808, 0.7843341875381808, 0.7843341875381808, 0.7843341875381808, 0.7843341875381808, 0.7313017956330188, 0.05230802016782835, 0.43998707568498246, 0.8294060920957036, 0.8294060920957036, 0.8294060920957036, 0.8294060920957036, 0.8294060920957036, 0.8294060920957036, 0.8294060920957036, 0.8294060920957036, 0.8295257968897058, 0.8369015538692771, 0.8484602288108032, 0.8600941047497025, 0.8645546228753032, 0.8641846931345224, 0.7662983913930244, 0.7582871336832001, 0.7582871336832001, 0.7582871336832001, 0.7582871336832001, 0.7671495841374063, 0.7843176877286644, 0.7843341875381808, 0.7843341875381808, 0.7843341875381808, 0.7843341875381808, 0.7843341875381808, 0.7843341875381808, 0.4255043677163271, 0.204516014778653, 0.8232492973295337, 0.8294060920957036, 0.8294060920957036, 0.8294060920957036, 0.8294060920957036, 0.8294060920957036, 0.8294060920957036, 0.8294060920957036, 0.8294060920957036, 0.8361928073558867, 0.8645546228753032, 0.8645546228753032, 0.8645546228753032, 0.8645546228753032, 0.8645546228753032, 0.7885964116698764, 0.7582871336832001, 0.7582871336832001, 0.7582871336832001, 0.7582871336832001, 0.7582871336832001, 0.7771068210998544, 0.7843341875381808, 0.7843341875381808, 0.7843341875381808, 0.7843341875381808, 0.7843341875381808, 0.7843341875381808, 0.7598641020219725, 0.09367787364206172, 0.46766796967629226, 0.7377971848961856, 0.8294060920957036, 0.8294060920957036, 0.8294060920957036, 0.8294060920957036, 0.8294060920957036, 0.8294060920957036, 0.8294060920957036, 0.8294060920957036, 0.8294060920957036, 0.8319373794916044, 0.8645546228753032, 0.8645546228753032, 0.8645546228753032, 0.8645546228753032, 0.8645546228753032, 0.8109226140292974, 0.7582871336832001, 0.7582871336832001, 0.7582871336832001, 0.7582871336832001, 0.7582871336832001, 0.7680940708997035, 0.7843341875381808, 0.7843341875381808, 0.7843341875381808, 0.7829585163477978, 0.7760712284443003, 0.7746452340512558, 0.773925915397075, 0.3585096056655506, 0.6744332556242477, 0.8294060920957036, 0.8294060920957036, 0.8294060920957036, 0.8294060920957036, 0.8294060920957036, 0.8294060920957036, 0.8294060920957036, 0.8294060920957036, 0.8294060920957036, 0.8294060920957036, 0.8296397013761422, 0.8634394852205578, 0.8645546228753032, 0.8645546228753032, 0.8645546228753032, 0.8645546228753032, 0.8328391342585463, 0.7582871336832001, 0.7582871336832001, 0.7582871336832001, 0.7582871336832001, 0.7582871336832001, 0.7642924019076971, 0.7843341875381808, 0.7836216750584486, 0.77767921952494, 0.7712125657698211, 0.7701375490266804, 0.7701375490266804, 0.7701375490266804, 0.49356363646367474, 0.5216081110704383, 0.8294060920957036, 0.8294060920957036, 0.8294060920957036, 0.8294060920957036, 0.8294060920957036, 0.8294060920957036, 0.8294060920957036, 0.8294060920957036, 0.8294060920957036, 0.8294060920957036, 0.8294062644071964, 0.8612105623867812, 0.8645546228753032, 0.8645546228753032, 0.8645546228753032, 0.8645546228753032, 0.856085661880704, 0.7586298796439847, 0.7582871336832001, 0.7582871336832001, 0.75656343505744, 0.7492947935349854, 0.7532198839884634, 0.7759341775678947, 0.7708530037340277, 0.7701375490266804, 0.7701375490266804, 0.7701375490266804, 0.7701375490266804, 0.7701375490266804, 0.6283251552019635, 0.3668914500072904, 0.8294060920957036, 0.8294060920957036, 0.8294060920957036, 0.8294060920957036, 0.8294060920957036, 0.8294060920957036, 0.8294060920957036, 0.8294060920957036, 0.8294060920957036, 0.8294060920957036, 0.8375575949995273, 0.864507346080175, 0.8645546228753032, 0.8645546228753032, 0.8645362524952573, 0.85972313551817, 0.8510011711896869, 0.7583356226204166, 0.7412931964346431, 0.7280074524089137, 0.718138199220224, 0.7177608045563811, 0.7329492391509751, 0.7701375490266804, 0.7701375490266804, 0.7701375490266804, 0.7701375490266804, 0.7701375490266804, 0.7701375490266804, 0.7701375490266804, 0.7453700900458862, 0.008690308897352238, 0.21139977676934354, 0.8294060920957036, 0.8294060920957036, 0.8294060920957036, 0.8294060920957036, 0.8294060920957036, 0.8294060920957036, 0.8294060920957036, 0.8294060920957036, 0.8294060920957036, 0.8294060920957036, 0.8347722091152021, 0.8521647322858871, 0.8427514997437667, 0.833187822078064, 0.8233471575620439, 0.8191149201605537, 0.8191149201605537, 0.763226641368538, 0.7177608045563811, 0.7177608045563811, 0.7177608045563811, 0.7177608045563811, 0.735922293272754, 0.7701375490266804, 0.7701375490266804, 0.7701375490266804, 0.7701375490266804, 0.7701375490266804, 0.7701375490266804, 0.7701375490266804, 0.7701375490266804, 0.11256523226717388, 0.05753755922734415, 0.8279485325801412, 0.8294060920957036, 0.8294060920957036, 0.8294060920957036, 0.8294060920957036, 0.8248027092767525, 0.7948896435960623, 0.7595440938967436, 0.726270943154556, 0.6930187925099305, 0.7187102744512763, 0.8191149201605537, 0.8191149201605537, 0.8191149201605537, 0.8191149201605537, 0.8191149201605537, 0.8191149201605537, 0.7851659689076881, 0.7177608045563811, 0.7177608045563811, 0.7177608045563811, 0.7177608045563811, 0.7389444151554547, 0.7701375490266804, 0.7701375490266804, 0.7701375490266804, 0.7701375490266804, 0.7701375490266804, 0.7701375490266804, 0.7701375490266804, 0.7701375490266804, 0.24288707959229838, 0.7415265195591585, 0.7979523817611758, 0.7637194035276034, 0.732502276013032, 0.701116607130765, 0.6736092412094897, 0.6699388732756706, 0.6699388732756706, 0.6699388732756706, 0.6699388732756706, 0.6857288544957795, 0.8186818200879707, 0.8191149201605537, 0.8191149201605537, 0.8191149201605537, 0.8191149201605537, 0.8191149201605537, 0.8071489962844864, 0.7177608045563811, 0.7177608045563811, 0.7177608045563811, 0.7177608045563811, 0.7429694549342066, 0.7701375490266804, 0.7701375490266804, 0.7701375490266804, 0.7701375490266804, 0.7701375490266804, 0.7701375490266804, 0.7701375490266804, 0.7701375490266804, 0.3756374736971961, 0.47285857317578084, 0.6699388732756706, 0.6699388732756706, 0.6699388732756706, 0.6699388732756706, 0.6699388732756706, 0.6699388732756706, 0.6699388732756706, 0.6699388732756706, 0.6699388732756706, 0.6699388732756706, 0.7767742821731627, 0.8191149201605537, 0.8191149201605537, 0.8191149201605537, 0.8191149201605537, 0.8191149201605537, 0.8191104174915282, 0.7296098140616106, 0.7177608045563811, 0.7177608045563811, 0.7177608045563811, 0.7453334768889477, 0.7701375490266804, 0.7701375490266804, 0.7701375490266804, 0.7701375490266804, 0.7701375490266804, 0.7701375490266804, 0.7701375490266804, 0.7701375490266804, 0.5089396881928334, 0.31454685448476405, 0.6699388732756706, 0.6699388732756706, 0.6699388732756706, 0.6699388732756706, 0.6699388732756706, 0.6699388732756706, 0.6699388732756706, 0.6699388732756706, 0.6699388732756706, 0.6699388732756706, 0.7015631855152941, 0.8170470236152724, 0.8191149201605537, 0.8191149201605537, 0.8191149201605537, 0.8191149201605537, 0.8191149201605537, 0.7793677530979242, 0.7177608045563811, 0.7177608045563811, 0.7177608045563811, 0.744036450759357, 0.7701375490266804, 0.7701375490266804, 0.7701375490266804, 0.7701375490266804, 0.7701375490266804, 0.7701375490266804, 0.7701375490266804, 0.7701375490266804, 0.6372266816320026, 0.15156718871311053, 0.6699388732756706, 0.6699388732756706, 0.6699388732756706, 0.6699388732756706, 0.6699388732756706, 0.6699388732756706, 0.6699388732756706, 0.6699388732756706, 0.6699388732756706, 0.6699388732756706, 0.6699388732756706, 0.7455951337120094, 0.8191149201605537, 0.8191149201605537, 0.8191149201605537, 0.8191149201605537, 0.8191149201605537, 0.8174926143070217, 0.7323170620692098, 0.7177608045563811, 0.7177608045563811, 0.7388743375536496, 0.7701375490266804, 0.7701375490266804, 0.7701375490266804, 0.7701375490266804, 0.7701375490266804, 0.7701375490266804, 0.7701375490266804, 0.7701375490266804, 0.7372121983655897, 0.006535629391189956, 0.011421701721932982, 0.6313997422615073, 0.6699388732756706, 0.6699388732756706, 0.6699388732756706, 0.6699388732756706, 0.6699388732756706, 0.6699388732756706, 0.6699388732756706, 0.6699388732756706, 0.6699388732756706, 0.6699388732756706, 0.6705061963783879, 0.747444846914401, 0.8191149201605537, 0.8191149201605537, 0.8191149201605537, 0.8191149201605537, 0.8191149201605537, 0.785989926589485, 0.7177608045563811, 0.7177608045563811, 0.7251275302945341, 0.767950380326609, 0.7701375490266804, 0.7701375490266804, 0.7701375490266804, 0.7701375490266804, 0.7701375490266804, 0.7701375490266804, 0.7701375490266804, 0.7701375490266804, 0.10694575536647433, 0.45223514223394407, 0.6699388732756706, 0.6699388732756706, 0.6699388732756706, 0.6699388732756706, 0.6699388732756706, 0.6699388732756706, 0.6699388732756706, 0.6699388732756706, 0.6699388732756706, 0.6699388732756706, 0.6699388732756706, 0.669938873451564, 0.7585710013035954, 0.8191149201605537, 0.8191149201605537, 0.8191149201605537, 0.8191149201605537, 0.8189382645895008, 0.740555708855603, 0.7177608045563811, 0.7177608045563811, 0.7277882730464855, 0.762138355123128, 0.7701375490266804, 0.7701375490266804, 0.7701375490266804, 0.7701375490266804, 0.7701375490266804, 0.7701375490266804, 0.7701375490266804, 0.2379911730949648, 0.29001894676047335, 0.6699388732756706, 0.6699388732756706, 0.6699388732756706, 0.6699388732756706, 0.6699388732756706, 0.6699388732756706, 0.6699388732756706, 0.6699388732756706, 0.6699388732756706, 0.6699388732756706, 0.6699388732756706, 0.6699388732756706, 0.6707026208534644, 0.7334530774860054, 0.817572313530316, 0.8191149201605537, 0.8191149201605537, 0.8191149201605537, 0.7926168351456121, 0.7177608045563811, 0.7177608045563811, 0.7237099651944557, 0.750080908954267, 0.7701375490266804, 0.7701375490266804, 0.7701375490266804, 0.7701375490266804, 0.7701375490266804, 0.7701375490266804, 0.7701375490266804, 0.36849524972949077, 0.13467684826636897, 0.6699388732756706, 0.6699388732756706, 0.6699388732756706, 0.6699388732756706, 0.6699388732756706, 0.6699388732756706, 0.6699388732756706, 0.6699388732756706, 0.6699388732756706, 0.6699388732756706, 0.6699388732756706, 0.6699388732756706, 0.6699388732756706, 0.6699388732756706, 0.7091956571894076, 0.8060255009766136, 0.8136402709310279, 0.7910465925372877, 0.7786282974189642, 0.7344756076928074, 0.7547874588046648, 0.7692108339862193, 0.7701375490266804, 0.7701375490266804, 0.7701375490266804, 0.7701375490266804, 0.7701375490266804, 0.7701375490266804, 0.7701375490266804, 0.7701375490266804, 0.49811869039689116, 0.0014628462762246938, 0.562247754204704, 0.6699388732756706, 0.6699388732756706, 0.6699388732756706, 0.6699388732756706, 0.6699388732756706, 0.6699388732756706, 0.6699388732756706, 0.6699388732756706, 0.6699388732756706, 0.6699388732756706, 0.6699388732756706, 0.6699388732756706, 0.6699388732756706, 0.6699388732756706, 0.6723747621170365, 0.6746636619990459, 0.6699388732756706, 0.6699388732756706, 0.6925314514221491, 0.7698731013935363, 0.7701375490266804, 0.7701375490266804, 0.7701375490266804, 0.7701375490266804, 0.7701375490266804, 0.7701375490266804, 0.7701375490266804, 0.7701375490266804, 0.7701375490266804, 0.6277255580336337, 0.24246310523117853, 0.6699388732756706, 0.6699388732756706, 0.6699388732756706, 0.6699388732756706, 0.6699388732756706, 0.6699388732756706, 0.6699388732756706, 0.6699388732756706, 0.6699388732756706, 0.6699388732756706, 0.6699388732756706, 0.6699388732756706, 0.6699388732756706, 0.6699388732756706, 0.6699388732756706, 0.6699388732756706, 0.6699388732756706, 0.6699388732756706, 0.6699388732756706, 0.7359714509169157, 0.7701375490266804, 0.7701375490266804, 0.7701375490266804, 0.7701375490266804, 0.7701375490266804, 0.7701375490266804, 0.7701375490266804, 0.7701375490266804, 0.7701375490266804, 0.7470174895254083, 0.012703713331517942, 0.004504226586799165, 0.535381758171348, 0.6699388732756706, 0.6699388732756706, 0.6699388732756706, 0.6699388732756706, 0.6699388732756706, 0.6699388732756706, 0.6699388732756706, 0.6699388732756706, 0.6699388732756706, 0.6699388732756706, 0.6699388732756706, 0.6699388732756706, 0.6699388732756706, 0.6699388732756706, 0.6699388732756706, 0.6699388732756706, 0.6699388732756706, 0.6699388732756706, 0.6832692388073206, 0.7679497513923534, 0.7701375490266804, 0.7701375490266804, 0.7701375490266804, 0.7701375490266804, 0.7701375490266804, 0.7701375490266804, 0.7701375490266804, 0.7701375490266804, 0.7701375490266804, 0.13162742423756668, 0.16477772125850965, 0.6692094804797815, 0.6699388732756706, 0.6699388732756706, 0.6699388732756706, 0.6699388732756706, 0.6699388732756706, 0.6699388732756706, 0.6699388732756706, 0.6699388732756706, 0.6699388732756706, 0.6699388732756706, 0.6699388732756706, 0.6699388732756706, 0.6699388732756706, 0.6699388732756706, 0.6699388732756706, 0.6699388732756706, 0.6699388732756706, 0.6699388732756706, 0.7289520394184225, 0.7701375490266804, 0.7701375490266804, 0.7701375490266804, 0.7701375490266804, 0.7701375490266804, 0.7701375490266804, 0.7701375490266804, 0.7701375490266804, 0.7701375490266804, 0.2630947382727378, 0.45912551811777613, 0.6699388732756706, 0.6699388732756706, 0.6191226138546122, 0.5705187790796544, 0.6294757371993768, 0.6683712297043216, 0.6699388732756706, 0.6699388732756706, 0.6699388732756706, 0.6699388732756706, 0.6699388732756706, 0.6699388732756706, 0.6699388732756706, 0.6699388732756706, 0.6699388732756706, 0.6699388732756706, 0.6699388732756706, 0.6699388732756706, 0.6793700471491176, 0.7654688856025962, 0.7701375490266804, 0.7701375490266804, 0.7701375490266804, 0.7701375490266804, 0.7701375490266804, 0.7701375490266804, 0.7701375490266804, 0.7701375490266804, 0.3796618643403689, 0.09846285120962, 0.6557439178886582, 0.6555665075729107, 0.1441885276928293, 0.01810458609840028, 0.10185699939218917, 0.138406226656534, 0.18977660152732542, 0.24194631412767018, 0.2943524819922679, 0.34683570491794197, 0.4059174954482461, 0.46653354327105956, 0.5113049901924043, 0.5668444353969763, 0.6221186894560707, 0.6656779742307407, 0.6699388732756706, 0.7260767090797826, 0.7701375490266804, 0.7701375490266804, 0.7701375490266804, 0.7701375490266804, 0.7701375490266804, 0.7701375490266804, 0.7701375490266804, 0.5502416670315976, 0.043024010041416184, 0.37970566272135875, 0.31156379931978984, 0.009288208278899618, 0.057291498004200477, 0.1318680582639904, 0.18550170348225656, 0.24147881080524194, 0.3128777361488963, 0.3792767482931439, 0.4443380101751344, 0.5090488701163417, 0.4842353570282284, 0.027092922899329942, 0.03494282757825983, 0.004851322982705373 ];
full_space = [ 1063.1, 8790.46, 6682.41, 4413.84, 2115.45, 199.74, 74.73, 7389.44, 10000.0, 10000.0, 10000.0, 10000.0, 9627.74, 7608.35, 5352.84, 3022.27, 745.61, 4601.41, 10000.0, 10000.0, 10000.0, 10000.0, 10000.0, 10000.0, 10000.0, 10000.0, 10000.0, 9954.55, 8424.23, 6181.17, 3982.4, 1825.36, 114.28, 1964.8, 9765.41, 10000.0, 10000.0, 10000.0, 10000.0, 10000.0, 10000.0, 10000.0, 10000.0, 10000.0, 10000.0, 10000.0, 10000.0, 10000.0, 10000.0, 9663.98, 7093.91, 10.77, 350.38, 8378.74, 10000.0, 10000.0, 10000.0, 10000.0, 10000.0, 10000.0, 10000.0, 10000.0, 10000.0, 10000.0, 10000.0, 10000.0, 10000.0, 10000.0, 10000.0, 10000.0, 10000.0, 2832.64, 5742.85, 10000.0, 10000.0, 10000.0, 10000.0, 10000.0, 10000.0, 10000.0, 10000.0, 10000.0, 10000.0, 10000.0, 10000.0, 10000.0, 10000.0, 10000.0, 10000.0, 10000.0, 10000.0, 7733.29, 10.04, 2965.57, 9962.86, 10000.0, 10000.0, 10000.0, 10000.0, 10000.0, 10000.0, 10000.0, 10000.0, 10000.0, 10000.0, 10000.0, 10000.0, 10000.0, 10000.0, 10000.0, 10000.0, 10000.0, 10000.0, 10000.0, 3027.6, 926.86, 9310.75, 10000.0, 10000.0, 10000.0, 10000.0, 10000.0, 10000.0, 10000.0, 10000.0, 10000.0, 10000.0, 10000.0, 10000.0, 10000.0, 10000.0, 10000.0, 10000.0, 10000.0, 10000.0, 10000.0, 10000.0, 8301.38, 106.48, 21.31, 7010.01, 10000.0, 10000.0, 10000.0, 10000.0, 10000.0, 10000.0, 10000.0, 10000.0, 10000.0, 10000.0, 10000.0, 10000.0, 10000.0, 10000.0, 10000.0, 10000.0, 10000.0, 10000.0, 10000.0, 10000.0, 10000.0, 10000.0, 3798.27, 4154.75, 10000.0, 10000.0, 10000.0, 10000.0, 10000.0, 10000.0, 10000.0, 10000.0, 10000.0, 10000.0, 10000.0, 10000.0, 10000.0, 10000.0, 10000.0, 10000.0, 10000.0, 10000.0, 10000.0, 10000.0, 10000.0, 10000.0, 10000.0, 8879.71, 344.63, 1654.52, 9650.25, 10000.0, 10000.0, 10000.0, 10000.0, 10000.0, 10000.0, 10000.0, 10000.0, 10000.0, 10000.0, 10000.0, 10000.0, 10000.0, 10000.0, 10000.0, 10000.0, 10000.0, 10000.0, 10000.0, 10000.0, 10000.0, 10000.0, 10000.0, 10000.0, 4626.18, 220.49, 8021.64, 10000.0, 10000.0, 10000.0, 10000.0, 10000.0, 10000.0, 10000.0, 10000.0, 10000.0, 10000.0, 10000.0, 10000.0, 10000.0, 10000.0, 10000.0, 10000.0, 10000.0, 10000.0, 10000.0, 10000.0, 10000.0, 10000.0, 10000.0, 10000.0, 10000.0, 9323.86, 666.92, 5304.85, 10000.0, 10000.0, 10000.0, 10000.0, 10000.0, 10000.0, 10000.0, 10000.0, 10000.0, 10000.0, 10000.0, 10000.0, 10000.0, 10000.0, 10000.0, 10000.0, 10000.0, 10000.0, 10000.0, 10000.0, 10000.0, 10000.0, 10000.0, 10000.0, 10000.0, 10000.0, 10000.0, 5425.04, 2465.82, 9925.77, 10000.0, 10000.0, 10000.0, 10000.0, 10000.0, 10000.0, 10000.0, 10000.0, 10000.0, 10000.0, 10000.0, 10000.0, 10000.0, 10000.0, 10000.0, 10000.0, 10000.0, 10000.0, 10000.0, 10000.0, 10000.0, 10000.0, 10000.0, 10000.0, 10000.0, 10000.0, 10000.0, 9688.02, 1194.37, 5638.59, 8895.49, 10000.0, 10000.0, 10000.0, 10000.0, 10000.0, 10000.0, 10000.0, 10000.0, 10000.0, 10000.0, 10000.0, 10000.0, 10000.0, 10000.0, 10000.0, 10000.0, 10000.0, 10000.0, 10000.0, 10000.0, 10000.0, 10000.0, 10000.0, 10000.0, 10000.0, 10000.0, 10000.0, 10000.0, 10000.0, 4639.34, 8131.53, 10000.0, 10000.0, 10000.0, 10000.0, 10000.0, 10000.0, 10000.0, 10000.0, 10000.0, 10000.0, 10000.0, 10000.0, 10000.0, 10000.0, 10000.0, 10000.0, 10000.0, 10000.0, 10000.0, 10000.0, 10000.0, 10000.0, 10000.0, 10000.0, 10000.0, 10000.0, 10000.0, 10000.0, 10000.0, 10000.0, 6408.78, 6288.94, 10000.0, 10000.0, 10000.0, 10000.0, 10000.0, 10000.0, 10000.0, 10000.0, 10000.0, 10000.0, 10000.0, 10000.0, 10000.0, 10000.0, 10000.0, 10000.0, 10000.0, 10000.0, 10000.0, 10000.0, 10000.0, 10000.0, 10000.0, 10000.0, 10000.0, 10000.0, 10000.0, 10000.0, 10000.0, 10000.0, 8158.61, 4423.55, 10000.0, 10000.0, 10000.0, 10000.0, 10000.0, 10000.0, 10000.0, 10000.0, 10000.0, 10000.0, 10000.0, 10000.0, 10000.0, 10000.0, 10000.0, 10000.0, 10000.0, 10000.0, 10000.0, 10000.0, 10000.0, 10000.0, 10000.0, 10000.0, 10000.0, 10000.0, 10000.0, 10000.0, 10000.0, 10000.0, 9678.41, 112.85, 2548.81, 10000.0, 10000.0, 10000.0, 10000.0, 10000.0, 10000.0, 10000.0, 10000.0, 10000.0, 10000.0, 10000.0, 10000.0, 10000.0, 10000.0, 10000.0, 10000.0, 10000.0, 10000.0, 10000.0, 10000.0, 10000.0, 10000.0, 10000.0, 10000.0, 10000.0, 10000.0, 10000.0, 10000.0, 10000.0, 10000.0, 10000.0, 1461.63, 693.72, 9982.43, 10000.0, 10000.0, 10000.0, 10000.0, 10000.0, 10000.0, 10000.0, 10000.0, 10000.0, 10000.0, 10000.0, 10000.0, 10000.0, 10000.0, 10000.0, 10000.0, 10000.0, 10000.0, 10000.0, 10000.0, 10000.0, 10000.0, 10000.0, 10000.0, 10000.0, 10000.0, 10000.0, 10000.0, 10000.0, 10000.0, 3153.82, 8975.01, 10000.0, 10000.0, 10000.0, 10000.0, 10000.0, 10000.0, 10000.0, 10000.0, 10000.0, 10000.0, 10000.0, 10000.0, 10000.0, 10000.0, 10000.0, 10000.0, 10000.0, 10000.0, 10000.0, 10000.0, 10000.0, 10000.0, 10000.0, 10000.0, 10000.0, 10000.0, 10000.0, 10000.0, 10000.0, 10000.0, 4877.54, 7017.2, 10000.0, 10000.0, 10000.0, 10000.0, 10000.0, 10000.0, 10000.0, 10000.0, 10000.0, 10000.0, 10000.0, 10000.0, 10000.0, 10000.0, 10000.0, 10000.0, 10000.0, 10000.0, 10000.0, 10000.0, 10000.0, 10000.0, 10000.0, 10000.0, 10000.0, 10000.0, 10000.0, 10000.0, 10000.0, 10000.0, 6608.43, 4695.16, 10000.0, 10000.0, 10000.0, 10000.0, 10000.0, 10000.0, 10000.0, 10000.0, 10000.0, 10000.0, 10000.0, 10000.0, 10000.0, 10000.0, 10000.0, 10000.0, 10000.0, 10000.0, 10000.0, 10000.0, 10000.0, 10000.0, 10000.0, 10000.0, 10000.0, 10000.0, 10000.0, 10000.0, 10000.0, 10000.0, 8274.2, 2262.41, 10000.0, 10000.0, 10000.0, 10000.0, 10000.0, 10000.0, 10000.0, 10000.0, 10000.0, 10000.0, 10000.0, 10000.0, 10000.0, 10000.0, 10000.0, 10000.0, 10000.0, 10000.0, 10000.0, 10000.0, 10000.0, 10000.0, 10000.0, 10000.0, 10000.0, 10000.0, 10000.0, 10000.0, 10000.0, 10000.0, 9572.48, 84.87, 170.49, 9424.74, 10000.0, 10000.0, 10000.0, 10000.0, 10000.0, 10000.0, 10000.0, 10000.0, 10000.0, 10000.0, 10000.0, 10000.0, 10000.0, 10000.0, 10000.0, 10000.0, 10000.0, 10000.0, 10000.0, 10000.0, 10000.0, 10000.0, 10000.0, 10000.0, 10000.0, 10000.0, 10000.0, 10000.0, 10000.0, 10000.0, 1388.66, 6750.4, 10000.0, 10000.0, 10000.0, 10000.0, 10000.0, 10000.0, 10000.0, 10000.0, 10000.0, 10000.0, 10000.0, 10000.0, 10000.0, 10000.0, 10000.0, 10000.0, 10000.0, 10000.0, 10000.0, 10000.0, 10000.0, 10000.0, 10000.0, 10000.0, 10000.0, 10000.0, 10000.0, 10000.0, 10000.0, 10000.0, 3090.25, 4329.04, 10000.0, 10000.0, 10000.0, 10000.0, 10000.0, 10000.0, 10000.0, 10000.0, 10000.0, 10000.0, 10000.0, 10000.0, 10000.0, 10000.0, 10000.0, 10000.0, 10000.0, 10000.0, 10000.0, 10000.0, 10000.0, 10000.0, 10000.0, 10000.0, 10000.0, 10000.0, 10000.0, 10000.0, 10000.0, 10000.0, 4784.8, 2010.29, 10000.0, 10000.0, 10000.0, 10000.0, 10000.0, 10000.0, 10000.0, 10000.0, 10000.0, 10000.0, 10000.0, 10000.0, 10000.0, 10000.0, 10000.0, 10000.0, 10000.0, 10000.0, 10000.0, 10000.0, 10000.0, 10000.0, 10000.0, 10000.0, 10000.0, 10000.0, 10000.0, 10000.0, 10000.0, 10000.0, 6467.92, 21.84, 8392.53, 10000.0, 10000.0, 10000.0, 10000.0, 10000.0, 10000.0, 10000.0, 10000.0, 10000.0, 10000.0, 10000.0, 10000.0, 10000.0, 10000.0, 10000.0, 10000.0, 10000.0, 10000.0, 10000.0, 10000.0, 10000.0, 10000.0, 10000.0, 10000.0, 10000.0, 10000.0, 10000.0, 10000.0, 10000.0, 8150.83, 3619.19, 10000.0, 10000.0, 10000.0, 10000.0, 10000.0, 10000.0, 10000.0, 10000.0, 10000.0, 10000.0, 10000.0, 10000.0, 10000.0, 10000.0, 10000.0, 10000.0, 10000.0, 10000.0, 10000.0, 10000.0, 10000.0, 10000.0, 10000.0, 10000.0, 10000.0, 10000.0, 10000.0, 10000.0, 10000.0, 9699.8, 164.96, 67.24, 7991.51, 10000.0, 10000.0, 10000.0, 10000.0, 10000.0, 10000.0, 10000.0, 10000.0, 10000.0, 10000.0, 10000.0, 10000.0, 10000.0, 10000.0, 10000.0, 10000.0, 10000.0, 10000.0, 10000.0, 10000.0, 10000.0, 10000.0, 10000.0, 10000.0, 10000.0, 10000.0, 10000.0, 10000.0, 10000.0, 1709.15, 2459.6, 9989.12, 10000.0, 10000.0, 10000.0, 10000.0, 10000.0, 10000.0, 10000.0, 10000.0, 10000.0, 10000.0, 10000.0, 10000.0, 10000.0, 10000.0, 10000.0, 10000.0, 10000.0, 10000.0, 10000.0, 10000.0, 10000.0, 10000.0, 10000.0, 10000.0, 10000.0, 10000.0, 10000.0, 10000.0, 3416.21, 6853.25, 10000.0, 10000.0, 9241.48, 8515.99, 9396.02, 9976.61, 10000.0, 10000.0, 10000.0, 10000.0, 10000.0, 10000.0, 10000.0, 10000.0, 10000.0, 10000.0, 10000.0, 10000.0, 10000.0, 10000.0, 10000.0, 10000.0, 10000.0, 10000.0, 10000.0, 10000.0, 10000.0, 10000.0, 4929.8, 1469.73, 9788.12, 9785.47, 2152.27, 270.25, 1520.4, 2065.96, 2832.75, 3611.47, 4393.73, 5177.13, 6059.03, 6963.83, 7632.12, 8461.14, 9286.21, 9936.4, 10000.0, 10000.0, 10000.0, 10000.0, 10000.0, 10000.0, 10000.0, 10000.0, 10000.0, 7144.72, 558.66, 5667.77, 4650.64, 138.65, 855.18, 1822.2, 2408.69, 3135.53, 4062.63, 4924.8, 5769.6, 6609.85, 6287.65, 351.8, 521.59, 72.42 ];
