len = 1190;
top_k = 50;
beta_streets = 0.4;
alpha_yard = 0.8;
street_space = [ 0.0, 2944.0164300184697, 1525.867388188839, 2560.9939155261964, 1921.0556018352509, 5002.081890493631, 3876.908707290888, 2939.3930300474167, 1415.5280572343618, 3254.655545771122, 1892.3053345885128, 5587.5520466044545, 5180.596152853221, 6557.226362854242, 4682.233357638121, 1176.4164928495884, 2049.3004143097205, 1316.9322214275599, 2852.777729842812, 408.83499436825514, 1964.6414508409798, 4743.560673445463, 2799.4363563656807, 3976.499677594751, 2500.2199130281806, 1424.2270521372557, 2725.955726099666, 2465.091506670229, 246.97119849547744, 0.0, 0.0, 0.0, 0.0, 0.0, 0.0, 507.25414104759693, 3466.1110299006104, 5509.778041526675, 3519.6811213195324, 634.1940659722313, 2861.6794524490833, 0.0, 4446.521029517055, 1939.5961878225207, 2208.858661595732, 86.93105270341039, 2386.253631927073, 2097.190727024339, 2767.4478281047195, 5778.064395710826, 6326.377655044198, 3871.7338797599077, 5478.723701916635, 2021.032511368394, 1157.0596953537315, 1701.5080573726445, 490.43588506802917, 2679.027459194651, 1260.5623654145747, 2022.9783015400171, 2385.96732416749, 2963.5451169312, 0.0, 0.0, 0.0, 0.0, 0.0, 0.0, 4305.446846276522, 3779.311750076711, 3646.012296818197, 832.1206505261362, 3546.9562137946486, 0.0, 3457.2074934765697, 1581.0930768549442, 2913.5155054330826, 139.13795854896307, 655.8638496249914, 2945.14204467088, 4589.064048638102, 2300.8649748265743, 2173.789389103651, 2433.9744963869452, 1040.4541119635105, 2068.5871852859855, 789.3223880752921, 3116.5552710816264, 5254.239052399993, 6222.511215619743, 4208.164550369605, 3742.957530643791, 2512.672541499138, 0.0, 0.0, 0.0, 0.0, 0.0, 229.16027562879026, 872.3122428432107, 489.02884737960994, 695.4093515947461, 3197.7636869326234, 2523.680958159268, 4327.230264481856, 1000.4146098694764, 3858.719772630371, 3275.0607280135155, 6325.81597495079, 2725.237134554889, 2117.9795136526227, 778.4533488750458, 21.459642610512674, 2243.4521871879697, 4644.864650040865, 1383.0275451499037, 2666.610349067487, 1801.4638869911432, 0.0, 1475.438455361873, 0.0, 0.0, 0.0, 2238.1156416497834, 1088.2630234826356, 318.4476014524698, 6106.1070403158665, 0.030052436399273574, 0.0, 0.0, 0.0, 255.9300243947655, 1036.1582000446506, 60.28035522901337, 442.88377687335014, 732.6888101892546, 2127.4603373259306, 4612.343878269196, 5423.553615689278, 3459.46731569618, 4877.957233107649, 331.7871994334273, 5274.612700695638, 3059.26897162199, 1893.6202881336212, 154.6052827090025, 4446.101283729076, 1962.6744959652424, 2434.403066666797, 1180.2062229402363, 1244.0870881341398, 1739.188585869968, 894.407977167517, 1953.5366256646812, 69.7238517999649, 0.0, 0.0, 1605.6117759865883, 2416.5419699810445, 1237.2663152455352, 3982.5173692321405, 2223.361244380474, 0.0, 0.0, 644.3934092028067, 1627.5002066269517, 763.7359517798759, 0.07401718874461949, 472.58009740989655, 149.6319096647203, 1995.1344235092402, 4880.832604169846, 3695.8169124126434, 1665.3954245448112, 2306.904095080681, 5195.328850213438, 4546.526323725469, 3810.7921548485756, 4528.7403618097305, 3738.4950744509697, 3397.1484728259966, 4661.535956889391, 1850.425902955234, 1151.9029539227486, 611.1605141833425, 915.2341701835394, 0.0, 106.78255178034306, 1248.0128188878298, 49.10807097516954, 1386.7728290483356, 1816.8599203154445, 99.1850517950952, 66.64952423330396, 2300.6436763629317, 4937.284748189151, 703.7110817059875, 100.8624102063477, 2240.323956643231, 0.0, 1639.7582316929474, 0.0, 0.0, 0.0, 84.94666946679354, 2799.695729427971, 1102.9898759573698, 5685.785284653306, 2820.0888580111787, 1725.856181836687, 2519.7459268271923, 2464.4706345275044, 5872.818342119455, 4210.359113853425, 3411.1170547312213, 989.328524036333, 975.0295506045222, 1030.2672283649445, 454.8348569665104, 1557.1651354804635, 0.0, 0.0, 2116.414398642257, 1367.4204379096627, 1406.6895977519453, 864.8559785187244, 1034.000359442085, 931.923907738179, 1650.9716294053942, 2349.7471508085728, 2709.952007582411, 1467.8900338932872, 8.019500127062201, 230.43054252304137, 1321.8774648495018, 1364.1191662037745, 1044.7449366324581, 888.6619191700593, 2384.2484980225563, 3760.317047073506, 0.0, 3492.1479429006577, 5040.539162615314, 2050.428890411742, 2033.4572688862681, 3535.800961896777, 5786.2354048117995, 3451.8126638545364, 1358.7472057938576, 3826.5526944904414, 1253.8239934531157, 2092.2146512009203, 297.00087333098054, 1526.0641131396405, 0.0, 326.35002648690715, 1216.152394860983, 0.0, 951.0063904225826, 299.26414228603244, 0.0, 0.0, 2819.008257828653, 2398.765131652355, 5782.428968705237, 1376.5758723579347, 984.8123245574534, 1096.4808177854866, 2394.1596424477175, 1662.2312120967545, 1724.7801698027179, 174.09168152697384, 4113.314626350999, 1566.671661845874, 837.9137703478336, 5899.208420157433, 2721.918485302478, 2104.5148184839636, 0.0, 2088.6805962771177, 4877.4732711315155, 4431.468997195363, 3023.566276565194, 5792.211963772774, 545.7003895640373, 1785.0833619609475, 1323.4893902242184, 1897.9456143206917, 240.68341857939959, 763.3296506642364, 2202.267499946058, 444.38058546185493, 0.0, 923.3560402425937, 770.7139502465725, 925.5019166246057, 2038.2988840155303, 0.0, 1715.0414383113384, 4027.832881450653, 1231.091235909611, 1893.9743614979088, 2918.3074716217816, 726.6344371107407, 1336.8561189696193, 732.2092013219371, 3636.670560017228, 45.60257460922003, 4826.554889559746, 5706.285950392485, 1349.838052034378, 1058.1990417744964, 2068.5414536222816, 3769.0779284611344, 2459.16026571393, 2377.9247018489987, 3127.663020528853, 5613.916690968908, 140.98566152900457, 2214.6761236563325, 2270.521592981182, 1598.2946413718164, 2022.7085558772087, 0.0, 85.97152809426188, 3015.807604789734, 1129.2659324854612, 1302.3199917897582, 886.271491907537, 880.0835543572903, 1690.33832321316, 364.7058581635356, 299.80608858168125, 4899.9351719506085, 1369.2115778233856, 807.042593292892, 2781.199020832777, 581.3821627851576, 449.1635468285531, 1498.1892952099442, 1190.397972997278, 533.950710915029, 5919.006785556674, 146.77444222569466, 4184.443083643913, 627.1249271929264, 1306.3998278155923, 446.09055272489786, 473.5673578437418, 409.70060394331813, 2888.0202022977173, 1685.0908337160945, 2629.765750579536, 2509.2658806964755, 517.5208991207182, 1958.9513828456402, 5047.537671966478, 3969.718319046311, 4549.154529675841, 2216.3723009079695, 826.2094156742096, 1763.512620841153, 1147.824834652245, 2203.2615541704, 3106.9577346835285, 2018.1203193864785, 0.0, 2212.737348334864, 4769.127307670191, 1638.2221908569336, 428.11765836179256, 1683.6671373452991, 1946.2187029775232, 2636.423062760383, 2575.7771758437157, 4300.360184725374, 2856.101215781644, 7.6692103343084455, 4141.686374019831, 4146.211525529623, 1343.52460283041, 1921.7155376523733, 1976.06018300727, 10.710684262216091, 4064.585368268192, 0.0, 2140.7330973725766, 3547.2163325101137, 1850.2937413305044, 5776.1843431741, 1783.7232781760395, 1795.5489631220698, 541.1801452338696, 2034.278302334249, 1802.2910799756646, 219.78042950108647, 1518.9274517148733, 2338.5412025377154, 1824.4616592749953, 1673.9974073432386, 771.1974521391094, 1143.6739743724465, 5092.049196714535, 2305.1031920798123, 1080.1026956057176, 1065.0045591527596, 2620.243868308142, 896.6971970889717, 1287.072793969186, 2325.1388640161604, 4160.3436924517155, 2619.24286955595, 3207.192678555846, 2190.9260928599397, 449.6875788271427, 283.61498591303825, 1030.1778323482722, 2085.676190569997, 5512.627909786999, 3482.951408267021, 3838.2346138060093, 3038.0429876819253, 2886.438298150897, 3083.8260006830096, 118.05130805447698, 627.4118317193352, 1115.5787942558527, 1523.016329150647, 1136.10234394297, 2040.042029619217, 114.15649124304764, 2304.971378341317, 1420.9865048527718, 1159.9381832182407, 3482.0612853765488, 989.7604338824749, 3074.5170788802207, 5271.734232008457, 50.235896311700344, 1946.6016533966176, 2489.89821138978, 718.1392715200782, 5607.288790689316, 3027.5368735096417, 1241.7860765457153, 6279.605265140533, 2826.3913219571114, 1653.721723522991, 3312.154810903594, 3597.2269468158484, 1848.7243911325932, 3100.216385403648, 3722.944715861231, 1971.8888686448336, 2489.9678280875087, 2099.5817571561784, 1401.8706378377974, 3773.3567702658474, 1594.2040941435844, 2105.975712513551, 444.51337766461074, 910.5953493323177, 1707.6984750442207, 2269.069594230503, 1294.0354126449674, 1053.4379155524075, 1402.176846768707, 0.0, 2261.1235517300665, 0.0, 149.60188817884773, 7763.539774090052, 1817.990012139082, 3056.795409232378, 3321.2679176293314, 3031.4520803950727, 2119.856364428997, 2840.025414995849, 0.0, 3027.7663543969393, 2681.5593699663877, 0.0, 3555.136290980503, 1295.8867968805134, 1961.427315339446, 2321.71338173002, 3418.745624113828, 2315.787906050682, 1367.9111601673067, 1210.459037820343, 759.5218346044421, 2123.5831079948694, 4400.170679703355, 1016.4489919183834, 252.94953499548137, 1825.3707742431434, 1869.8308541737497, 1926.9307022318244, 3537.2926468774676, 2041.4716262668371, 2401.5991957597435, 1472.0313220955431, 5800.742910076864, 2097.362317547202, 1784.7687245756388, 5472.169881142676, 4251.663034796715, 1314.1602851264179, 1048.8867900725454, 2593.326273113489, 4441.195499435067, 5053.185253039002, 3198.4825669676065, 4010.4806745946407, 3649.216045293957, 2817.4886718280613, 220.23798055946827, 3415.897112928331, 726.68183337152, 997.3008507695049, 2385.351656321436, 2605.214293040335, 269.11859323084354, 1216.6025292612612, 1793.69412830472, 2754.593750375323, 3853.9824202619493, 1580.741403429769, 2819.8683886583894, 3647.606659513898, 2976.772404193878, 920.3383603738621, 1098.5853938627988, 2276.4109728448093, 3214.0008358731866, 1478.485157057643, 1260.656080991961, 1969.69560803473, 1769.089871890843, 3002.7596675837412, 4616.901398539543, 0.0, 1214.2578766215593, 2452.277475434821, 4366.974924199283, 2021.7713957354426, 926.594131320715, 3523.379291214049, 3847.0923169851303, 1424.7232301654294, 4245.746643036604, 4377.168267279863, 1225.2609000504017, 1748.590383760631, 4042.2342461645603, 2559.791533652693, 2107.8012353107333, 2054.880976960063, 2604.859273903072, 1173.475464089308, 2341.444186421111, 0.0, 2078.3282548638526, 2146.5234363730997, 2070.8935532718897, 1234.0723696351051, 2874.469327479601, 1457.4192259535193, 1154.2936190664768, 0.0, 795.3153019845486, 1270.2565823802724, 748.3071771003306, 2317.041520136874, 4987.150903761387, 0.0, 372.2768445890397, 0.5530308349989355, 3595.112097684294, 345.48894065618515, 3010.476169024594, 5541.1249445304275, 2721.0068125166, 2390.965026266873, 3192.5730193406343, 155.20628789253533, 2653.7877227663994, 998.0474340394139, 1493.1386680863798, 1133.2705414788797, 1701.4225788339972, 1952.121435083449, 3074.5448009911925, 2902.1157017424703, 2121.0172752868384, 0.0, 70.49401820637286, 1828.8878945559263, 1205.6802263567224, 2166.1198852863163, 2610.537862598896, 1875.936769478023, 2046.0672040730715, 1381.3713383506984, 976.9388295784593, 1602.2909577190876, 938.7820440791547, 1159.5240414495347, 5142.9092125967145, 0.0, 0.0, 0.0, 2976.228882553056, 923.6646596491337, 6114.673104442656, 1161.7249300805852, 2733.6519796550274, 1537.5244786590338, 4286.850256092846, 1207.4890886098146, 2361.813128613867, 2124.672766238451, 3624.1473785564303, 3833.6357447057962, 3342.318653896451, 2426.860383734107, 1352.882789708674, 965.1899732649326, 1335.5157127790153, 126.10988751985133, 135.80680184811354, 1027.804289673455, 2230.328614532016, 1841.616067994386, 1443.6173593625426, 1627.2336445845722, 2354.2381802950986, 1724.7804569974542, 93.1234442666173, 15.93333587050438, 3811.431474555284, 2190.8499771878123, 4141.236469309777, 149.18075382709503, 0.0, 0.0, 1025.326860108733, 7076.130416214466, 3846.2607272565365, 1636.9216145509854, 4661.88572306931, 2147.7770940931514, 3708.0235751494765, 3440.209945142269, 1433.9977030158043, 667.9816362634301, 4530.925717126578, 1423.880615806207, 1970.0922517180443, 1649.6314239688218, 1460.0472494717687, 1475.7685293704271, 1455.0896885432303, 3539.6094409562647, 2579.889703080058, 1560.5042640401516, 1706.004006460309, 262.8047682829201, 2550.7868741750717, 2585.943707164377, 490.64564123004675, 0.0, 0.0, 1665.7225510962307, 3362.367947191, 1867.400653468445, 4425.8416755869985, 1468.7722426056862, 0.0, 0.0, 3378.11030009808, 2136.086374163162, 3608.095024037175, 2585.7244158685207, 495.0741835460067, 0.0, 539.7434319108725, 3983.7176091074944, 0.0, 934.2237678456586, 4172.708877637982, 2724.2928455024958, 1528.579571671784, 1455.892142161727, 1938.6392171005718, 2657.9357162807137, 1694.8771000131965, 3887.3769879192114, 2563.534525603056, 1763.87360965088, 835.9231890663505, 43.80937456712127, 2336.9874619990587, 1429.3742797309533, 980.7053706273437, 0.0, 901.2289665155113, 3496.661235205829, 2750.8524376153946, 2473.943827390671, 2389.1485466912854, 3042.1254246234894, 0.0, 0.0, 1634.9973760638386, 4461.820480436087, 215.49698674306273, 136.88018062710762, 0.0, 0.0, 0.0, 4597.029024716467, 1078.3134816214442, 1918.1761557534337, 4387.446867100894, 2941.36810195446, 1052.4757620655, 4086.033075538464, 2691.2627433538437, 2124.9685928765684, 1266.24382609874, 2145.9569610673934, 3020.514040865004, 2129.14576068148, 1838.913503833115, 2026.8919136077166, 3132.161064684391, 1806.8255217820406, 205.37900975719094, 292.2271141111851, 2048.9276883006096, 1193.846344070509, 1481.4950878471136, 1550.740157045424, 4094.058562025428, 4028.265790425241, 0.0, 0.0, 873.5040641129017, 4262.938419260085, 1820.5033532381058, 340.6913865094539, 0.0, 0.0, 50.86298374272883, 2828.4476166199893, 3724.405137758702, 2888.602127701044, 1092.6381848528981, 1765.6639979369938, 979.767719047144, 1873.3623870909214, 1431.877942547202, 1444.0401337902877, 2625.2380042595323, 1086.7547770952806, 1598.7886619493365, 2056.420326076448, 143.69080560654402, 1032.1177521133795, 1838.400989253074, 1406.060619868338, 563.6440673284233, 1369.4406111165881, 1212.9506613463163, 938.6655349228531, 921.9041219726205, 0.0, 1793.4967150120065, 1369.3605238422751, 0.0, 0.0, 0.0, 2564.7475818600506, 4176.688506893814, 145.38030604668893, 0.0, 1632.0951130259782, 2393.2395812999457, 1942.596647258848, 3870.7270616963506, 107.76960395649076, 1048.0290259122849, 1305.5089200250804, 2733.087269084528, 649.4688822813332, 1622.6518483385444, 950.862550586462, 1177.2176360338926, 1607.638722231146, 1792.4250877909362, 1063.6189635638148, 995.1730243079364, 639.9132939726114, 2850.3718703612685, 1977.254248701036, 255.78524796664715, 102.50049702264369, 1698.676365392981, 2338.9339738488197, 1875.771118849516, 2224.560824483633, 3037.458767607808, 2838.694902203977, 2174.0449659898877, 1644.2174221351743, 0.0, 1702.1768077667803, 5410.222724691033, 3814.742758512497, 1450.843463793397, 4500.948489166796, 351.89346940629184, 2082.374322352931, 4324.790299169719, 1309.7223943397403, 100.53099430655129, 1381.2517359480262, 2317.8193491250277, 1751.3589491918683, 1206.489334691316, 1825.33601927571, 2781.4167914688587, 1523.4754584282637, 1104.2564308773726, 2208.9901112737134, 1714.9244294948876, 397.4463815446943, 3441.5604290887713, 240.69758546352386, 1148.6942646726966, 1195.0990809630603, 2403.6772944927216, 1513.1588145270944, 801.629123212304, 818.013830262702, 1545.7605561353266, 5111.857912670821, 5136.3386917393655, 3.0362307634204626, 0.0, 1524.8354402035475, 2304.8654507510364, 5667.138559676707, 1537.4110782508506, 936.8545175716281, 3591.498807504773, 3205.220681451261, 1243.2477181721479, 2876.9451045691967, 1360.858820527792, 11.829453391954303, 1336.2999080484733, 616.3194762170315, 1901.504519872833, 911.7370302826166, 0.0, 1258.8253580098972, 1643.8110933983698, 2128.011348458007, 613.2338297441602, 708.5091247861274, 1086.3702819296159, 2117.8969218358397, 2132.647591665387, 1197.880817282945, 178.76967404410243, 1279.0057734809816, 334.8195942938328, 1941.4991869814694, 545.7836931608617, 2752.815657503903, 1552.205914258957, 0.0, 0.0, 612.4550311863422, 1262.8727438524365, 2069.433494180441, 6332.4664043188095, 4101.376058012247, 54.53760606609285, 320.22811134625226, 2358.968698279001, 3962.6707054525614, 1128.9487074017525, 934.2898101732135, 2157.1247340738773, 1074.88131146878, 689.5816505132243, 1252.460057117045, 34.54655257239938, 1386.7454077461734, 1245.0036712894216, 324.6609804034233, 1860.2435368392617, 1404.8859287071973, 1263.5779427420348, 1717.3340509533882, 2162.9798472374678, 1446.2893379032612, 1.0488185323774815, 601.4188799904659, 2161.166440758854, 661.8209698945284, 2273.681846305728, 2017.172414727509, 3217.5352504253387, 0.0, 0.0, 0.0, 1291.5196067625657, 0.0, 5316.346206981689, 2688.5326575264335, 1821.796633824706, 1819.9050895497203, 0.6247401833534241, 3324.3937427066267, 117.88580921292305, 497.1615292355418, 2119.68170588091, 459.59173540584743, 2663.802500538528, 1695.3321964405477, 1679.7132806181908, 2235.1659518182278, 4987.693243741989, 4247.735646221787, 3760.855035454035, 1928.0322109423578, 538.8109850138426, 981.082562789321, 387.55707663297653, 231.35395155847073, 2102.023895211518, 728.6271064057946, 0.0, 1234.5832332540303, 1897.8306188955903, 2.804905042052269, 4161.316274015233, 0.0, 0.0, 0.0, 1182.5994120240211, 717.1606025379151, 2551.1329070329666, 1511.3925547730178, 1075.879854157567, 0.0, 0.0, 1104.2469676434994, 3818.697096079588, 405.0298941396177, 1195.7571808006614, 961.5669377790764, 351.7415657490492, 2093.846746623516, 1497.7680604606867, 1014.4709377530962, 96.95279133180156, 1436.5509001179598, 1007.9110263027251, 1350.1447274908423, 0.0, 515.8568473495543, 1553.9287232756615, 0.0, 305.98517449758947, 1649.8516774699092, 1523.5049122422934, 379.4915575888008, 1164.5728169409558, 881.9797910600901, 4206.328781932592, 0.0, 0.0, 1386.9492925405502, 2610.230897165835, 3488.7093320563436, 1331.6422920748591, 4459.536957729608, 613.7683568298817, 0.0, 0.0, 0.0, 4343.546392481774, 132.96078623086214, 1740.2872663885355, 990.1603348767385, 0.0, 2324.7267828956246, 1217.9443132132292, 1191.430328771472, 1587.570336729288, 775.843739320524, 1031.9238609559834, 449.574644446373, 1330.3929040282965, 429.33435586094856, 232.18959798663855, 1419.6109377592802, 697.6827799342573, 46.115891590714455, 1578.049442064017, 3942.390268832445, 255.84778072685003, 3031.9490665458143, 5486.176617473364, 0.0, 4855.3653629701585, 4777.295025616884, 766.2052280381322, 0.0, 0.0, 898.3417702913284, 4275.4767643511295, 0.0, 146.71430983394384, 1451.2615343369544, 4481.661851771176, 1845.1804479658604, 1610.596454829909, 2063.9966491935775, 2464.532715007663, 2542.6270226687193, 1356.7439796328545, 661.0781276896596, 1735.6042439918965, 1120.5310538746417, 135.15490234596655, 957.6519763860852, 1956.7607381679118, 0.0, 0.0, 884.2120899101719, 1487.8704901784658, 744.095938116312, 1297.8616690956987, 2531.211860835552, 1733.307821309194, 1805.0815714206547, 5533.5098118186, 168.24283818900585, 244.53462312743068, 2777.9278832040727, 0.0, 0.0, 0.0, 0.0, 4492.138171695173, 451.67757515609264, 1202.7405174076557, 1267.2005167640746, 600.9095256328583, 3725.9297223985195, 1264.3908638358116, 95.26653593033552, 2038.531054854393, 0.0, 2101.533706629649, 708.7274179495871, 1565.7185179926455, 788.9667390845716, 697.8737467415631, 1363.4577736519277, 2122.137331493199, 1664.8632384033408, 669.5077829887159, 811.2795832231641, 1789.368312811479, 0.0, 2880.5832499600947, 1301.3795493841171, 0.0, 2125.69421300292, 2651.4409929402173, 1617.2491993904114, 1585.5513309314847, 3961.2649716362357, 293.31020264327526, 0.0, 0.0, 0.0, 869.7038965281099, 6068.273862868547, 4381.059718042612, 4583.417459700257, 3247.4584199786186, 565.0887457747012, 2463.5856007784605, 1554.0500110164285, 3062.08969065547, 0.0, 1909.7073744926602, 769.7567491158843, 1565.442774483934, 1463.5076368525624, 1217.1315737590194, 515.8418189371005, 818.0872758813202, 2378.7923325896263, 35.41523606143892, 489.4503861181438, 1441.4170081922784, 93.69005833566189, 4074.500933755189, 129.97223548591137, 0.0, 777.910029001534, 893.4430329576135, 1398.6971226576716, 611.5005220621824, 2730.267874099314, 189.42826471477747, 0.0, 0.0, 0.0, 3882.558067366481, 348.5426540672779, 0.0, 1737.3746958263218, 3636.574125148356, 3562.618278954178, 3797.3122234502807, 3719.072019457817, 4256.528125911951, 4213.478196486831, 4551.967397421598, 3913.428334183991, 2816.2761571109295, 4313.479799240828, 4029.0341212898493, 3940.1044362187386, 4171.333020284772, 2631.392431214452, 1206.2073593437672, 1373.9183265939355, 2917.0722365938127, 356.590452298522, 2882.11439018324, 1711.2433806583285, 1073.1186539158225, 1866.8389578796923, 2634.896550946869, 4902.205149863847, 2088.9019617028534, 1548.687121808529, 0.0, 0.0, 1258.0179945691489, 1122.9584015011787, 3803.583931595087, 3498.8040137141943, 948.5059263259172, 850.4808403942734, 2643.4757968112826, 2817.274024726823, 2853.286695063114, 1774.2114667259157, 59.16724015772343, 0.0, 2982.8395552411675, 953.4069799184799, 2229.210592551157, 0.0, 0.0, 220.08400667458773, 1126.337648153305, 1363.954016841948, 1966.1759920138866, 3083.7878664173186, 4331.130802795291, 3880.7259437292814, 6657.676150947809, 4273.960424184799, 4195.798415094614, 2863.2761473357677, 432.69000937696546, 1026.88963008672 ];
ext_space = [ 5719.806304959871, 2832.324734757959, 3909.6654575800058, 3200.951396200806, 2420.8712113170186, 1523.9371522159, 1369.4530884847045, 1942.2185524847882, 3299.2582603626397, 572.4691837123537, 803.3202520741033, 1954.637296229601, 2912.6922387741506, 1353.2651132864592, 2022.0332129262379, 3839.4041871295776, 2574.9177054553293, 2444.384443730116, 2942.777065801318, 4370.015557959909, 2002.1813515755348, 1966.9964666475134, 2725.4118168917903, 2156.750877965807, 2501.590862535068, 2493.125340608887, 2416.90715308564, 1479.1404682703642, 1181.7847713487245, 1816.46610615775, 575.6361161843288, 0.0, 0.0, 0.0, 5529.051402206853, 5599.385309732612, 2197.171349836426, 2073.844043856061, 231.13883432027131, 1267.350111424661, 4034.823786695255, 3371.3528003374813, 1594.8575019584641, 2816.2775831119056, 1419.9077443539384, 2515.4037575672846, 961.6855709615393, 2151.0317694554506, 2294.509696282468, 682.4098573187439, 309.4913043857625, 1157.5282021007374, 1469.1770546911353, 2444.545309213807, 2774.1748433722787, 2846.6585896057077, 4175.26536930001, 2605.2248606642124, 3168.3977578651975, 2086.0365014416166, 720.9638132790205, 4312.119500019778, 3788.75480318442, 302.8258340358734, 0.0, 0.0, 0.0, 0.0, 2766.835570948222, 3302.402414595661, 2542.8473151285084, 4480.939953976499, 1589.4177012268483, 3863.2241666428745, 3287.67027403228, 3146.683323894271, 1396.7125225074633, 2195.9671471736656, 3047.1734475432445, 1437.8347481648216, 430.8155309797203, 2736.072078065883, 2697.2458108630963, 814.5277473484166, 2356.8278083931655, 1938.0914001863857, 4855.934758811156, 3578.650522802025, 1306.1955758587137, 1371.5659509062498, 2052.7473895594303, 981.6594175862094, 0.0, 0.0, 168.1824982946273, 2725.877396091819, 1279.3049145787954, 1.8189894035458565e-12, 6.826337559454054e-10, 55.30169622376411, 0.0, 0.0, 2177.7877877947703, 3172.414333854864, 1599.5073692063263, 4393.859946630895, 1786.76185355708, 3443.601393791663, 672.1530353929847, 512.6820989960106, 911.3015614954552, 979.8668138632288, 5351.899175753002, 1726.5556512313121, 1007.0320175702523, 3435.262766288968, 1928.563636386223, 1785.679601869313, 3545.783129219897, 1587.5644749090538, 3411.346588955932, 2587.1860180229414, 3890.360885482307, 2785.711679345881, 4064.00811747634, 35.52809646536208, 794.9282688871026, 3062.0767469303682, 620.0813150444355, 4646.957127704285, 3410.588041024923, 3865.9944215245196, 1818.889052005863, 5357.626404654709, 57.681014482164755, 0.0, 3135.3928564065136, 2134.051363743826, 1883.5749176363825, 1907.4548233826645, 2625.4220285096217, 2510.241542109995, 720.7678875319752, 458.37535081446185, 1572.8550232946873, 66.55460776109248, 1129.1629456318915, 2396.0345337956583, 284.55560608344547, 4254.261558539955, 1325.1615090990183, 1133.0715485554229, 1543.4777359458726, 1362.280432868534, 3578.9312446717786, 3725.940810094062, 4448.104983194742, 3639.4639553866837, 1833.5670795248334, 1361.3918875804534, 1559.8566819264088, 3378.227937616117, 2465.969166237339, 3622.2513703609475, 2933.387753643786, 2880.693673322862, 1931.5500721095332, 213.04939005724555, 673.9994220428634, 0.0, 2336.156709654102, 605.0315188811786, 1318.4464203573077, 1449.926405504224, 2004.8713668482487, 883.3601293390982, 1034.0933504628783, 2508.7264841272254, 353.8566042536404, 346.67221417894007, 1872.9307493435836, 1472.238125152497, 1198.517919026735, 1223.508149726803, 2559.394777625019, 1808.81482940723, 2589.811767870102, 3278.6990072638146, 1348.823906131548, 3394.795581833114, 2351.4406342141237, 3447.658241583683, 5125.821538219303, 5664.607224862884, 1706.1431385690616, 1968.8417451514924, 3550.8920607303917, 3442.77846664526, 1925.480066334112, 3903.5345231964457, 3046.9582091748052, 4649.434821469387, 517.6032299995422, 0.0, 2868.9926902008174, 2288.1351859594324, 2777.9262156840414, 424.07662974856896, 1260.5300669686103, 338.1088156494705, 2570.3941027465703, 2418.5313291773373, 721.3078637588314, 1174.0268768936717, 444.38744359536304, 1145.495389171604, 1826.6565242017114, 1615.8730191286304, 3326.6315157302306, 1975.8303081441777, 5315.778477337444, 4686.067643492483, 1383.8355683060995, 2142.0233982106, 1853.1741073198355, 2778.120258090831, 4357.473265279049, 2960.582160657307, 1206.7637125777333, 1961.5522113456627, 2611.5022846929496, 2620.7998097232476, 3022.2076180566137, 2937.6552848316633, 2226.368492081094, 820.374328834936, 0.0, 5.587935447692871e-09, 3514.950548278981, 3069.867417107042, 3090.637290353887, 2474.1665075985934, 721.8094328991428, 305.8731183761838, 1498.9000441301614, 276.20728329904136, 816.0605667334257, 3294.047992149737, 2659.8584557776703, 1905.3218542749978, 2605.9466984481332, 736.8460294957622, 3866.6929017079074, 2068.710943824317, 2972.2391109892633, 3970.55578176945, 955.1410702732923, 598.3310683764139, 499.1377475408517, 2396.6661519192767, 4237.788173249002, 2241.53548985043, 1004.3808840620986, 2079.6136507962365, 1472.5756403681553, 1827.5864907841305, 3289.170817958511, 4289.200919335184, 2286.9475462187975, 589.0738772116601, 0.0, 0.0, 1827.3287864694867, 3009.463827982545, 4827.482982750982, 1022.5733872180587, 570.3217253349721, 5552.378166593088, 2960.81205734834, 2254.504238227324, 1156.2324105817825, 1063.6358483963668, 1541.5709273535758, 1132.2872515631607, 2087.481460252806, 1582.413802953546, 1941.2793875234074, 1686.173982767595, 1002.4987481323697, 950.9889512654299, 800.6271015502607, 2588.2916201207445, 3971.0440946620274, 2044.1950907673286, 1950.5313472354803, 1333.1493898504634, 1479.5558063199985, 2994.1980089163408, 2893.202703427609, 2797.8759712486935, 2988.6759012388065, 2926.5292703911255, 2176.504218372922, 1084.9689058939257, 0.0, 62.321393583435565, 3497.6371963390866, 5964.859164820053, 3015.145720291999, 857.8487771544605, 2763.5254865524803, 358.43867118983707, 2046.629548666182, 2378.0689105212896, 1981.268226119486, 1133.3328385987916, 1988.7478748230706, 504.55567692872137, 1645.4989852325962, 1987.596973386333, 1026.2097884580726, 1066.7864008791373, 393.0022762356132, 909.7468954291375, 1400.4863986378823, 811.3580743437633, 1407.967626336318, 1448.202317872314, 2034.8010553172535, 973.1735720676252, 1290.6498441776355, 3475.650179641283, 3477.2757363497767, 1603.913653453361, 3358.436349230764, 3333.0582398055176, 2412.543088345188, 1082.8931285754447, 117.44981088070199, 2036.5708205176052, 2213.2363598557404, 6324.343152059676, 400.56669847942203, 3678.7305306745693, 1157.2161264677998, 1976.75960937943, 4733.30094151071, 4181.340721315704, 1773.569071866572, 1855.8227963319514, 2518.391618156875, 779.0843109330235, 646.7976266550154, 1121.646489906807, 1493.5382269192487, 1033.4475192370955, 121.27836490880725, 659.6458487042091, 589.0650841391835, 1819.6479731074069, 2588.1923746534158, 1812.377368305993, 2670.0986727822146, 1158.8115526883284, 384.3109073280357, 894.2427033284293, 3768.179667084478, 3493.245571775362, 2312.503235873797, 2002.0399381686448, 2040.923178725362, 1525.087403971942, 1629.7613250774275, 1258.5348816014875, 4843.234875168651, 1218.5260321516544, 282.89577650314567, 4838.363358546976, 963.9646207869519, 1171.1608754731715, 2508.382025961211, 1629.6250124811195, 1973.0892405441264, 1514.6894435835984, 2044.170409090108, 3340.9971771351993, 300.3707774413546, 73.4767235968211, 302.52809919044375, 56.322273502126336, 639.3398404991167, 877.3359139192471, 1074.9734255723888, 1044.2204424584677, 895.0870730093411, 1525.2465645824695, 3626.3320636175904, 1534.2057644671706, 1474.9308370930182, 1790.4700440804936, 5101.856385516965, 3793.8002655603614, 1772.1542790012427, 1111.212213746081, 2498.2913227675017, 4089.6689869230613, 1252.7317132962962, 2299.322745636002, 4472.5618633609265, 1659.3188049122691, 405.22676537265465, 1653.318853574054, 982.5506916308841, 1965.979116919987, 5451.651775454566, 2343.3718866771255, 270.25134580902295, 743.3858862610409, 949.4702652192173, 917.9651649538428, 111.16796207195148, 1637.770826654043, 230.55316625954583, 29.190027142874897, 1942.5232937132823, 1904.0555590366994, 1259.6363568848465, 1459.372960136979, 1768.723193621263, 985.3087738191309, 1987.0417079074978, 1171.1768114156657, 3130.8503057642374, 956.9218573570383, 1086.8250031536586, 2933.3643582716686, 1733.8115587445707, 2129.298319180496, 3786.545185260402, 3360.2455310029327, 3142.3993334104434, 2880.4431439123546, 454.02148883084874, 1018.5809040202294, 2436.0835978584364, 273.94193175103965, 1557.5816185313236, 2685.488168611253, 2720.181310776621, 2730.703435632866, 390.50120976920425, 162.6019177284965, 308.968946256613, 1205.8761731480793, 738.1369811421214, 1078.0016573862085, 1003.0725997245754, 398.8461084993987, 541.463062737606, 107.60196999890809, 1121.6368423197418, 2806.252491070889, 1123.4267947481387, 886.9520130657093, 1672.9874836430863, 1092.9082409898328, 3967.1962043827516, 2682.3952625091188, 2724.8621847826, 3598.6322879674153, 3501.1842037178553, 627.3929951936007, 2834.2362803300857, 2322.7478977983665, 2520.8556992793456, 1737.8164704938613, 642.5576416904493, 1097.2927222112194, 1294.445517287124, 1254.308074254158, 813.1130016708337, 268.82887453376316, 1621.5643000053242, 1476.324865674298, 1129.3895995059809, 1238.0546048230483, 861.4175026946772, 977.4724436977486, 1547.4666469223982, 567.9285936954639, 866.3546701385112, 1039.2104569445864, 269.50874095613835, 905.0423032500671, 1554.4598730009748, 690.63729859057, 872.6238916073055, 769.2630491456166, 204.31061306927415, 848.1211299175579, 890.8857686807562, 1664.7377855293098, 251.24396414324576, 1567.7626793669597, 742.1414451343135, 512.4101688396522, 3424.855698914267, 3438.6619315879207, 4858.463623481844, 1747.5057155841637, 463.39516223287853, 645.7974909738465, 1785.7361099403352, 938.6205698648926, 1266.502160047885, 1112.1304218600458, 5964.358220646398, 1897.2780682893163, 1713.643215738801, 1574.4856711358943, 1627.801457147577, 1155.5482047284017, 3048.8854152773274, 2090.442671085666, 374.5704058856936, 265.30656499700086, 660.9703374095261, 918.96475157139, 820.6220849901438, 756.7592128144379, 265.7235008353057, 1107.1286003130585, 1177.4046528943597, 1567.856209971715, 1002.4272426312357, 1682.543001582846, 1291.9465445040287, 1398.0022323114063, 1735.9222272792995, 1287.866592895935, 2384.799185566604, 4468.916917068418, 3218.3929849458495, 2294.470658351609, 201.74833176135144, 1679.7431254212456, 3024.8576680110923, 2581.0987068886525, 1264.906804755124, 3098.3991845722194, 1299.8111018174827, 1026.440713150869, 1588.2300928972336, 2066.066980298964, 669.6889520580587, 715.9070670490835, 1447.270609322016, 1307.9403267096773, 1034.7708358694522, 1814.70692361374, 615.228317339439, 709.3036116836593, 1892.86520614638, 586.042514877714, 739.1597437703119, 1338.1030073327129, 1365.3186031457656, 1328.8200535555402, 1539.1994978420798, 2201.0844504844863, 2335.2181836076006, 819.0969875039211, 1660.0306875425172, 1504.1747117636896, 2339.7883522780467, 6530.928178593516, 3361.046990159899, 2905.5607466616148, 341.2088830684561, 2188.37266460713, 3226.7417382771982, 2069.888869761955, 2698.961890177046, 993.4563088088748, 1043.9169931526499, 3297.2364552149497, 808.4512966272547, 938.1670708367601, 1281.4227688279934, 851.9119244865142, 875.683174425154, 611.9953665248468, 971.7670148842226, 257.9353651525453, 403.46550121111795, 153.56147794052958, 132.16742358356714, 343.6310029537417, 275.0648575993204, 1943.9664687916618, 1379.9500879442785, 1483.7301625656985, 666.1084743897588, 1771.1259581960212, 1112.9448665141367, 1467.9356690180368, 854.8930851309669, 1880.3569662342968, 3051.5147440279416, 3859.47779179411, 2727.5388660447206, 0.40332150503127195, 1160.0719796279445, 2552.15394038707, 277.4463946146989, 1739.3292466378225, 2061.5446557682008, 909.1872771870981, 733.387287504252, 1770.1005079337301, 1625.3001751644952, 964.1779424290871, 858.6844883833846, 112.8241269482196, 612.2429804621252, 1525.3054761729477, 2114.074463360911, 816.2221039123833, 866.3371110521257, 21.10127523355186, 59.38120358996093, 175.2227193461731, 60.94385446049273, 1308.3536982596852, 380.2813008008525, 781.9879129194368, 3916.4265953127624, 1912.7737544661913, 1595.6229428127408, 2404.732836127281, 1518.4879302615154, 1840.1118005339522, 1558.009043693055, 1204.3236341550946, 2558.8103389464377, 3480.2472786842845, 4794.130409740144, 59.883740132674575, 3054.158361404203, 3614.2766988074836, 1151.4144959251278, 1817.6060856584656, 1168.9087303291808, 196.74762402397755, 502.05804813031864, 606.7496499343397, 289.1631559142543, 1087.236889672933, 1369.929367873876, 1660.3806314662484, 855.7001118161471, 2220.370115727321, 1055.6311638081283, 163.37720122886407, 404.8860643410105, 258.3088739429063, 522.1773195889373, 1072.2479430920457, 658.711627778468, 688.5350863782414, 4063.2026758384695, 358.8760705379377, 3628.927057146677, 2490.98192164395, 737.0287065757802, 3067.560031003286, 1343.3232529094994, 7024.6175530757755, 4887.295893878334, 3580.2626406855125, 2517.460076307079, 307.0683793457982, 3806.942956549232, 810.1807369720191, 128.57568856794387, 490.7704976722598, 1028.552893587388, 723.2146399021149, 0.0, 637.645967553156, 531.6380075128723, 562.5592075732909, 1136.8901762920432, 1329.7418720846763, 688.5797255792713, 417.382960230328, 797.5577774012368, 232.2593286051581, 526.2215254884989, 751.715194494381, 2016.5833149043249, 30.579545576125383, 1550.8987087966243, 1148.8585572229156, 2525.9956667209935, 3208.1545096079353, 2720.041221016817, 1611.1381480183336, 1916.4380832114257, 2644.282502070673, 2136.290708922548, 2220.337268119678, 2577.886388540268, 2151.7886046954845, 702.5546403785227, 931.6969874166307, 3273.127479162067, 246.22113861562684, 151.2141535118426, 3761.628496736288, 446.44423465803266, 1888.5295879280357, 1420.9597184087572, 2167.6166213463293, 513.39656286221, 674.3285910142729, 1687.3807924900684, 1013.0229751596926, 1088.5895752676297, 1162.7197834992312, 657.3181550157465, 273.07017326688504, 241.55984551483925, 576.6525601842707, 2326.539037825889, 80.94965821271762, 667.52728309945, 2268.2544377160057, 2967.160525432587, 3616.241158540797, 3102.0314731756225, 2700.806869910448, 2152.104657116889, 2101.4812517208375, 1208.2809596505485, 1979.885072966572, 1687.0571368153687, 1118.39251101017, 125.65378210321069, 258.3412031796938, 5647.305087115616, 492.6065824450925, 0.0, 4550.238350376021, 3064.4278518958017, 1609.1604022561078, 1767.531252179742, 2160.8934918520067, 2427.4126128875396, 839.4557874776631, 2784.015646197423, 671.7855338370871, 1058.7161528056895, 824.4196261297111, 852.2229209519975, 272.1471245211711, 654.6629435936247, 747.7744643312161, 2353.043684850447, 1593.3737663956904, 1527.9164451464312, 1447.6169550786726, 1829.2115244877386, 2442.138987653856, 2203.6744883852084, 2543.798595526976, 1729.8443419919765, 3300.5036032436074, 2770.5668947299473, 1805.283203419065, 5207.175326257944, 1403.1253498009173, 11.231808613985777, 2792.867806238268, 3129.273553939944, 1465.8102633049712, 2559.6977938339114, 2068.8040919303894, 1747.4156501163889, 1626.340739009188, 1573.8476283105829, 2842.605325147468, 1633.6201137867974, 1328.8218931088759, 511.2235192111425, 1552.1737954763194, 2047.838046571389, 2557.0354963539367, 1165.1089498027318, 872.9945983697565, 680.332409709692, 1224.1156965375894, 1086.5383515374288, 1320.1683028026, 1135.1934701388236, 1961.376277629548, 2068.1420180907016, 2407.0546656732913, 458.45191254499474, 1076.8911213334684, 843.3945412101114, 1268.4254776882008, 969.9351649417922, 256.90589586848364, 1022.8270821765241, 2804.4643473655997, 0.0, 2589.5258921579625, 433.44022608501837, 5502.203738385811, 3717.721706861281, 841.106783423922, 2687.068305454217, 767.8451910857176, 295.931107624202, 1668.159318113661, 2682.9598681951784, 1196.0312742569076, 1590.5285901593352, 1038.6120596526762, 1790.4978938486893, 1069.4510376832252, 832.181686456363, 1491.488562017018, 2206.4631550200284, 916.033704173693, 1121.1125616470235, 2408.3231161946023, 1326.1509638837333, 2766.239491398679, 3030.359244829994, 1293.6814643095368, 827.2577098812405, 1112.57198164045, 1247.9943933959476, 1935.5858266583164, 1799.7297679980102, 1812.076028991909, 727.5984202528666, 2996.612695408954, 0.0, 2248.337285087986, 758.7166877934051, 1448.4523094296183, 962.3896485245787, 1676.3628745197625, 1819.738319011325, 1178.8138732615516, 1549.1880989007514, 1334.404276357789, 1115.5377763136057, 3120.672190110141, 1394.3368803277845, 3223.990221641991, 1696.1479118779694, 1190.2664540631904, 3238.602000223589, 1712.941271234556, 1322.1611252294365, 657.8924617610337, 2334.720000396699, 2018.7620180539107, 1177.9830846194131, 1123.3153519653715, 654.7110824414794, 2076.7092203166885, 2199.869836979795, 1995.0004198596434, 719.839490579584, 1657.6913009824011, 1532.0002803320804, 1307.5481824534945, 1211.219929290004, 860.2280067685866, 0.0, 1668.58338421816, 1993.8844668043885, 4422.533625428099, 1246.5304317898117, 82.41098234242845, 4052.276737688866, 3380.56227935676, 1647.3896146929858, 1065.1094290267793, 1173.9524706648663, 1617.9290501684882, 626.9466779989016, 2247.9090059757, 283.86344130694556, 360.5352670843349, 2474.851904910058, 1623.412283068251, 2050.080425981388, 1410.56710979715, 1187.1264633853289, 974.2858699900607, 1125.052826066487, 930.7956102667958, 1033.2487422596541, 1180.1753246877488, 1986.2854733739514, 2324.201645488554, 1643.908462029358, 2453.2641889204447, 2134.623755506096, 3071.642623809632, 43.90720343077555, 35.880032206784676, 0.0, 660.673788972199, 4586.61395934294, 7463.102131689899, 2715.046597267501, 1757.6154377153143, 2755.500552162528, 1823.6681103219744, 3376.7441807163705, 2028.2911174898036, 3291.7584824142978, 2653.0742150204023, 2175.9682075731107, 3171.565959402593, 1506.282833948033, 1215.661440065552, 1141.2876893247012, 1131.3984200433285, 448.40745893949475, 315.38032275575847, 490.997772588099, 2334.493361596775, 1406.9961415170328, 2187.9190150395734, 2229.4730954163824, 3134.054795807074, 1065.1241826282348, 1517.4386533821817, 2372.3798393878387, 3619.8984404066578, 1756.2664827879394, 3978.117196014151, 625.1447541415691, 0.005846696544907104, 0.0, 324.32790671114344, 6025.75013874484, 2942.522987070198, 2800.2817265280028, 125.45712818368338, 2893.237221563235, 4166.52498004667, 3690.2979429636616, 3299.0199487875216, 2266.316273728735, 2545.7379265305353, 1555.6428395022936, 2690.1102259271493, 1903.5732248313725, 1276.5359716698295, 1209.0339377258206, 1693.1183504348155, 1552.602637026663, 1543.0513272620155, 1144.2257228411618, 570.1002821603324, 2847.9239544771845, 1688.5266507178312, 1919.0495465740096, 2511.5372306822974, 2663.8922994012064, 1317.319489342513, 1064.3402747401606, 3322.308211329393, 2306.989309067738, 2583.84772253926, 1382.1611621901393, 0.0012054863046557784, 5145.093205961399, 4590.839221924078, 3698.193677213043, 5648.785744829336, 4758.061814935878, 2130.9056707900017, 1463.4926889017224, 1269.7220138907433, 1887.7118452955037, 3521.1407305282773, 2884.453374773264, 3725.8457263152814, 1129.198274543728, 1695.8368773532504, 3637.286221317365, 1236.3661853355588, 1590.7032812929247, 1742.9953175165394, 1343.796542048425, 2499.373051794595, 1551.899518511258, 1425.6115451999913, 1539.0470039113452, 1045.197281273082, 2309.982161901484, 731.6930090456641, 1416.1600685932208, 2651.0001481882337, 1511.1689319228203, 663.4771095118231, 2991.2592214745564, 1266.0016348105855, 636.2970929607109, 0.0, 2234.594599360891, 1734.3150220520329, 695.6669348891592, 5638.800689434167, 4678.075463965535, 3800.3137522214092, 466.048228750471, 6056.538869097363, 3924.618036144413, 3307.5261792331003, 1807.7220232292311, 2453.5335570912894, 1072.746306653481, 2438.140577929793, 1210.5823937712703, 2581.042501703836, 1685.4765718634007, 2068.820346610726, 1862.7345066170292, 1994.845627773786, 2050.625579919084, 1194.4547335008974, 505.8039407490869, 1185.4450298340525, 2132.4304431152996, 1786.850833536077, 1216.7333078660595, 842.248644136489, 2224.43955461531, 1471.5951371612027, 876.9028468803735, 927.1072041510488, 263.3826599678141, 0.0, 4658.900273561478, 2544.1110370387096, 4318.51158455218, 2772.768169716699, 6150.525125101209, 5955.218637306476, 2784.1877136526164, 2170.087241703877, 4698.095641796477, 3630.9580685385736, 2940.10708233295, 1200.0217311941087, 1551.3823556321586, 3145.397903381847, 2837.277468775399, 5229.279305868316, 2715.5630196924467, 994.3792034000944, 2893.948465763746, 1576.4442344239496, 1186.0779061780322, 1567.3453202865085, 1073.5093713374808, 1559.6459599859081, 1371.0056980439713, 1827.628445972774, 1114.7701636408456, 1837.4563037090645, 3648.9556139600463, 827.062067322433, 2115.5513968761006, 884.9046359971217, 2625.6095834908956, 0.0, 3563.625593815348, 2564.232518477854, 2621.397680293456, 321.1904574558139, 6215.246703223325, 4236.670969660394, 5672.027928004973, 9.515810007753316, 3272.671655091457, 1416.9319695443555, 2337.418923119083, 538.5303727653809, 2403.3280672784895, 3801.45292378671, 2572.6945259826025, 4346.147638869472, 3248.7495148568414, 2393.7270462943707, 819.2506404707674, 1467.497001068201, 2564.060520098654, 4196.625763431657, 4470.101920196088, 999.6088424979243, 2904.558296115778, 3141.182742787816, 2901.5519751166576, 4923.095002513379, 1946.9074126622581, 1328.6404035952655, 4756.961251161356, 1674.0584468669413, 674.0693453427084, 1080.7847156947028, 2252.2254199114504, 1640.2271467221435, 171.541328769963, 183.11981099381228, 1762.969924947247, 7956.8172969678935, 3034.479479238391, 5527.637601904571, 2345.449362585321, 2316.7203729284593, 1721.7734760732492, 1858.977811679244, 1065.6506272879196, 1781.5421301090391, 2227.037410970079, 2757.3268713229336, 1891.0985228983045, 1368.0516858520568, 666.7513910162379, 1849.1770387783763, 2803.966711513698, 3602.5384783087065, 1640.0110217182664, 1194.8133770670975, 1495.144191501895, 3327.3447392388334, 2297.6144358082547, 4965.434902563502, 3101.1970125276275, 3349.043351926299, 3125.5288589612974, 3210.285965482649, 2072.080986814486, 2124.6024895473383, 3887.284199476242, 525.8697122818558, 763.6377863672096, 39.78546144627035, 755.5194079333451, 5040.800177853711, 1783.3522276142612, 1512.2280300903512, 3471.133981792722, 2818.104923927225, 2242.126183987486, 2900.4729625637337, 2055.60039519571, 3297.4407712187967, 3948.063204951206, 4882.342929003644, 2687.6018670842013, 4188.996942822895, 1948.2849581325427, 2168.579053584719, 4272.82168902643, 3605.059928826813, 5020.275191750377, 3062.7148075662553, 1659.0601396989077, 3225.341552429367, 2418.0738944746045, 2309.104122271143, 310.81349814690475, 2457.847040761495, 1155.8890781064983, 1041.560285877924, 2952.8163945791675, 2733.863018284459 ];
green_space = [ 1909.5048021497205, 1153.2006709217094, 2313.057778346818, 2804.5902117658406, 4087.8776027513086, 1466.1557537103072, 599.0896320659667, 2963.0223279623315, 2277.1497877978254, 1530.0157031472772, 1764.9508102308027, 1077.5414295569062, 2391.838660698384, 2112.8477230776334, 1173.4617367386818, 1612.5794421155442, 526.800126567483, 1790.5000027106144, 1047.9973351865774, 1845.081607750617, 3943.6685402756557, 2246.3584718118655, 2218.2344960540067, 821.6629781096708, 931.7214502545539, 4228.760948354378, 2666.356800282141, 4751.730048055062, 7914.469017098658, 7709.893115311861, 8843.091072831303, 10000.0, 10000.0, 10000.0, 108.41202765703201, 388.56403797119856, 705.3430925763678, 632.1948372293264, 4488.982223382958, 5518.9520950727165, 1264.140276569873, 3970.3147371783853, 2605.3365623597056, 1890.3508168889384, 1131.2018615212291, 1784.8089599460363, 1469.84355638735, 1158.462959818542, 901.8539988589473, 1784.4578843303025, 1510.9994677901268, 1165.2600992820226, 1941.9695621133505, 4330.723240679945, 2234.3047218510183, 3687.0411162376404, 3457.480551878689, 1198.5942082714755, 497.98834529076703, 4031.885663827881, 6116.820723713376, 2527.5289219133556, 4200.294508952647, 7480.300010947161, 9847.684956138022, 10000.0, 10000.0, 10000.0, 409.5466618221253, 1.0, 404.67593506583944, 1540.232833711896, 1371.7985526297707, 3687.2864140719175, 1192.953725163592, 2762.396584517206, 2511.3408518796787, 1192.7232434637845, 123.30939458496869, 1.0, 103.20731681957841, 116.0169163546525, 74.54791212407872, 1.0, 2156.462748169899, 1067.3278546258807, 2700.315691118827, 2784.6540671661496, 3390.7987359841354, 1660.8002356174402, 1831.5326821702765, 1333.8508940038737, 7808.621100850403, 10000.0, 9832.817501626909, 3454.6005304828286, 4919.880908379564, 9972.523793935776, 10000.0, 9861.068351624592, 10000.0, 10000.0, 1204.6821615276858, 1588.9863525724504, 94.45269344747066, 399.7687964460347, 1244.3679731804878, 1267.243216897652, 946.3409229249228, 1978.3760424359934, 1543.3709740291815, 3727.573143750429, 145.05244674533606, 1.0, 90.93506542220712, 1774.5416298680939, 1387.723891147878, 977.143595290836, 862.7529904060066, 456.308327564504, 2407.580429480411, 2382.3490175390616, 2991.424957277719, 1093.2713718172163, 6.767223823815584, 4156.878187207505, 4067.7201290093362, 5247.828932560049, 8508.67897669971, 1822.2545655127615, 1451.6270734975114, 2960.4837243746733, 5874.351836331014, 3064.3128843226004, 9924.067377746105, 9949.164933145046, 2633.4439180083573, 237.7696157330647, 1.0, 1258.9364924855763, 216.62794005637988, 427.6970910737291, 2504.3740183291957, 5556.876528374589, 2740.2471645346377, 9807.664842247963, 613.4864378869534, 115.03435235470533, 610.1729966304265, 849.417477985844, 2546.0583403273486, 630.9057792760432, 1556.0194280038122, 909.7969076521695, 1351.068497870001, 2216.8778416574933, 3387.5581618447322, 1978.7270424303133, 2801.281811694149, 746.1462831939571, 2769.367646469269, 3492.42814398231, 5860.093056935817, 3282.4601735053584, 4931.414428040589, 3727.0053154857596, 5697.650624573231, 9273.61395816505, 9275.856278508902, 9796.74793791771, 299.9002267047763, 27.86621246766299, 488.4381689550355, 3565.2533532491652, 773.4905402995646, 937.6158448660426, 1184.8901957254857, 1497.7686749035493, 804.2821621415205, 729.0318300891668, 1054.1394149627304, 21.261012816801667, 1.0, 207.62337606213987, 2594.2111569156405, 967.9183200187981, 2118.923216532159, 849.9032029956579, 919.2920969042461, 1342.0924952415517, 741.5542420860147, 120.6505690922495, 1288.0482095661573, 441.83815068751574, 1252.1727605176857, 3360.4333767900243, 3141.1025000285154, 3852.8498491329374, 5093.905116644019, 4078.7599215991795, 3399.6302356906235, 3968.8983896067366, 9472.251256637275, 9778.780105143785, 3676.2037074323744, 725.9006084715948, 3304.6659025980625, 14.50071715330705, 360.5743021070957, 1338.4933930530387, 1134.1838546264917, 1.0, 852.3046530126594, 1708.063908278942, 1788.0372400422348, 1164.3493864382617, 740.8469923490193, 1362.9141122642905, 1451.3067218133947, 385.8343670144677, 784.7783710891381, 930.6977288541384, 244.58255773596466, 1463.364113021642, 1259.2795799459564, 1963.6604114766233, 1164.7385408710688, 916.7853187248111, 129.6834328630939, 4208.009320313344, 3821.5008958051912, 3483.934429098619, 4433.244186712895, 4973.111324738478, 4388.28808207158, 8707.0316933617, 8705.735424373299, 9354.7857157588, 1894.8298332896084, 909.4154261499643, 4415.72608689405, 115.83348406851292, 3017.3600939111784, 551.8756329836324, 907.308942399919, 228.07773771882057, 114.30932789295912, 621.5208790190518, 225.91146128857508, 1564.4243542589247, 1609.8583695478737, 117.56290800124407, 2239.144005424052, 1.0, 1651.969649210805, 1298.121285816189, 241.63370147533715, 5032.963027548976, 3952.583992858883, 2970.3459141015774, 3982.1699853446335, 3187.7519607627764, 63.3769908354152, 2890.8329081181437, 2923.2566212678794, 3476.5816583037376, 1693.1272844686173, 1904.2100449618883, 2822.7690551020205, 8953.334394469857, 9709.716012090445, 8355.435098706745, 1.0, 1.0, 2975.4345958139747, 814.141903221258, 3914.074921888765, 299.0065581439994, 2034.109956423752, 342.17380179464817, 100.62685763696209, 1.0, 1.0, 437.679449994117, 1757.1739301644266, 1338.7788741476834, 448.32401882344857, 1.0, 441.21631831355626, 1939.298423975706, 1519.8111664757598, 2945.762308496982, 1118.8136998079717, 660.8490099273622, 181.8402747772634, 719.4632707219571, 166.37485084950458, 6470.075555906165, 3902.348078568466, 1060.8057862636633, 2935.230156227015, 1998.9297501025721, 1428.4337055553915, 7908.877065042383, 9016.052103936672, 9721.044231077656, 235.61040117032826, 1.0, 656.7726749051362, 766.1638554937672, 4901.713887134182, 6683.053555939347, 4001.560844999738, 1343.2441116459668, 771.0753064975142, 1.0, 94.20114447921515, 150.27679770439863, 2549.066405750811, 400.2052377089858, 280.1254263734445, 1.0, 2377.4298949160147, 1395.9181424058042, 2867.231782973744, 8.860370064154267, 1.0, 585.1898218309507, 1313.1836482034996, 1524.1890061181039, 842.4225384113379, 3069.405330773443, 2053.2517769746482, 2566.0748145137914, 2174.614144977415, 2759.4686969448812, 2079.818246641371, 7449.706222801935, 9854.055275125429, 4349.449931322248, 1331.2077103258925, 327.91412468999624, 1063.6564564146101, 1.0, 1845.5086225271225, 7023.998692691326, 966.2338811310474, 4995.1898574810475, 7879.24526014179, 7564.377824304625, 2714.457528721541, 1.0, 1.0, 1.0, 1.0, 1.0, 2470.257915182039, 1947.793196175713, 1124.2150103133172, 125.49835493601859, 560.9244848042727, 1682.154052123893, 145.09631396993063, 1194.513244209811, 1047.7319286474958, 1054.2882604319602, 568.6004771646112, 452.8380980733782, 1972.053643847812, 3090.285408800468, 6490.440025005955, 5546.054346943274, 4984.044138982426, 6117.711798648816, 372.2661034325138, 2691.281152276206, 4995.7634854801, 1596.114885901101, 1.7418521996587515, 1384.840054191649, 3415.3747965653893, 2894.0275487974286, 2009.4773084446788, 6922.589384874795, 755.8152245283127, 2190.744399121497, 61.35263969749212, 1.0, 1.0, 1.0, 189.0904761571437, 156.40665045194328, 812.5885339197703, 721.3156908433884, 348.4475640754681, 2486.3709742219653, 290.6630772445351, 17.5807922501117, 532.4644877500832, 37.957058497704566, 461.3731075525284, 1578.941838491708, 1986.0988894621842, 4896.952605262399, 3876.7091526235454, 2419.5121010928415, 4338.89142795885, 4858.249445270747, 944.4097786229104, 3639.523905267939, 5341.2596992861945, 833.6417679134756, 92.29952613636851, 1.0, 1308.8524253270589, 4873.4411113579245, 608.3136143619195, 457.05676601827145, 283.4456182420254, 1.0, 1632.1842094972963, 158.38279551267624, 1.0, 1.0, 732.1520441025496, 59.538052037358284, 65.30611036717892, 574.7839747713879, 736.0602363387588, 94.80505367857404, 669.7664912631735, 1249.6997663285583, 462.26221861550584, 4616.249469317496, 2314.4914860725403, 2184.899819697137, 2236.722735442687, 1220.7901279889047, 1251.3282357794233, 2058.060382691445, 2854.498865091242, 4514.563290101476, 1176.6603471897542, 55.41171845048666, 115.73657281580381, 1.0, 1.0, 190.0202342448756, 854.1059336881153, 993.3639366875868, 1.9783305702731013, 1.0, 1.0, 1.0, 71.76621685316786, 471.6662986651063, 1.0, 1.0, 1.0, 749.2907515112311, 54.23553902376443, 201.9427919993177, 302.5194611637853, 425.06503074243665, 6.715737243182957, 1989.4700541403145, 640.0218103330117, 1386.6652192659676, 759.1094264015555, 2070.581426556804, 829.456259588711, 1137.2661223676987, 464.6667634919286, 828.2065619647037, 1435.4994262480177, 2493.8947766218334, 2884.7977450024337, 2695.7825881964177, 1.0, 1.0, 286.38061314681545, 4154.438391937641, 164.81354793906212, 544.439810205251, 114.37798918969929, 1.0, 1.0, 1.0, 1.0, 286.04839136917144, 1.0, 1.0, 1.0, 1.0, 1.0, 1.0, 492.03286224091426, 598.0100173931569, 243.87697228603065, 1102.5152031108737, 1.0, 417.48021191358566, 1.0, 583.8609594991431, 1726.5212447140366, 632.0805766936392, 1203.3291264393483, 371.7997077163309, 236.49705525208265, 4534.023415999487, 1889.379430256784, 1412.49103543628, 1.0, 270.31555688381195, 1.0, 126.35779815539718, 138.38446237146854, 320.1408176328987, 1634.262421860476, 1236.86824994348, 159.21223226562142, 31.42795003578067, 1.0, 578.8521320270374, 1.0, 1.0, 1.0, 920.4095800798095, 161.4259111881256, 1.0, 96.21091078221798, 1198.3872776913922, 760.6128859445453, 1660.0494009256363, 1.0, 312.96616114676, 498.9063202738762, 721.8933557979763, 1294.7081295847893, 1.1870991010218859, 1444.5345012685284, 1773.2115987893194, 2144.255889852415, 4344.802687206306, 1.0, 940.4788719126955, 30.20683083217591, 158.7067875470966, 190.12749857036397, 348.4198978296481, 176.16204450279474, 339.3559551378712, 29.48185125552118, 20.30446061718976, 1.0, 257.67667249403894, 1.0, 1.0, 1.0, 134.53110324963927, 1.0, 700.281938277185, 89.03331882506609, 1.0, 435.0096703246236, 10.921984534710646, 1.0, 1.0, 35.448368462733924, 4140.367164185271, 1152.3695051434916, 368.2062505558133, 1121.9605554887094, 988.5591119010933, 1195.6685007056221, 1454.4848989199381, 4440.66442380799, 5015.661759962328, 179.8493299856782, 5766.691053527407, 964.1842616372742, 2736.501068499172, 1786.935664520126, 66.85623441264033, 1.0, 598.892470751889, 1.0, 1.0, 150.89900621026754, 155.43580343353096, 1.0, 1.0, 1.0, 1.0, 1.0, 1.0, 1.0, 1.0, 1.0, 1.0, 62.09183170623146, 104.85244120284915, 559.3131566895172, 1388.0059063904919, 253.22738619497977, 100.62711986340582, 1855.6957910305355, 2173.845409282949, 1020.9663828173652, 952.4893554321025, 3736.503484725952, 9850.90581613779, 451.62141294777393, 930.9074789416045, 345.4466003328562, 4342.378978263587, 639.8302049487829, 41.02853575721383, 1.0, 622.3932358066086, 1.0, 131.53145337477326, 32.95004955679178, 1.0, 1.0, 1.0, 418.0265521778365, 1.0, 1.0, 1.0, 1.0, 1.0, 1.0, 1.0, 1924.181875616312, 1044.0873968079686, 667.8669516779482, 816.5679386798292, 2795.3891430888325, 138.20613811165094, 480.2632643310353, 1867.3775252671912, 3745.6047726767138, 6038.899483174086, 5876.815997630358, 6048.491886824369, 157.20526927290484, 1744.3522528856993, 1701.4747626120225, 653.4089726638049, 176.88711370900273, 1225.765490416903, 178.64751745946705, 1.0, 25.82740458101034, 2829.5830043610185, 117.05645142775029, 1.0, 131.9887922303751, 1.0, 473.55256548081525, 1.0, 1.0, 1.0, 1.0, 1.0, 259.0698480338324, 555.3089073604206, 176.34584783948958, 75.48710054717958, 548.9262497229502, 2233.920014408417, 323.4316407311708, 382.37189557403326, 1856.1619577482343, 1608.8330683372915, 3134.2104439155664, 454.363595969975, 1238.8196959132329, 4527.431600983604, 974.1250895382836, 1938.7312803445384, 2667.6292410222813, 6585.311085205525, 9282.101181209087, 8044.78705149889, 7516.0766078829765, 225.10342261195183, 1.0, 1.0, 1.0, 1.0, 1.0, 1.0, 1.0, 1.0, 1.0, 1.0, 1.0, 1.0, 1.0, 841.5304774455726, 1.0, 1.0, 723.4950156810228, 2154.9769756877795, 1451.2443249821663, 521.8119854084216, 562.7185478108004, 3112.827702506911, 2850.8167254030704, 1780.238375772722, 1046.160190308001, 2722.335816047853, 161.2953911065124, 1069.5621320577338, 347.0779230296612, 8854.472001120448, 8785.215486024623, 5527.11077841837, 9554.555765286088, 1529.7330557107925, 1.0, 154.420411801897, 102.02922703861259, 1.0, 856.2426689695567, 1.0, 1.0, 1.0, 1.0, 1.0, 1.0, 1.0, 1.0, 1.0, 1.0, 1.0, 440.6775837109308, 3132.327417421213, 611.448758084327, 1897.4669832214713, 786.4632744332775, 2307.3132044700906, 834.4521328695118, 751.7075367784128, 1.0, 685.5276944600046, 383.210524674505, 243.02509371284395, 258.72836039960384, 8266.762972027063, 10000.0, 4953.296006791294, 2306.9167273938656, 698.7785710506141, 1.0, 1.0, 811.8322481662035, 116.31726967170835, 682.1912435896229, 1.0, 1.0, 1.0, 1.0, 1.0, 1.0, 1.0, 456.21863870322704, 1.0, 451.2969411741942, 1.0, 634.2638216242194, 1.0, 552.4273014776409, 953.9569156048819, 936.9219844834879, 2952.1392452199943, 852.0044769085944, 927.1801038521808, 578.6822184175253, 1718.1808771304786, 1.0, 1.0, 615.4490387062542, 5719.465043014381, 7441.302206158638, 4347.328181887511, 1359.1862279800698, 54.0374575862661, 849.223002364859, 1563.5870267096907, 252.6820393782109, 1507.2874544970691, 133.67912327498198, 539.1609157146886, 1.0, 1.0, 1.0, 1.0, 1.0, 429.7242298554629, 1.0, 269.8455237429589, 40.023736614733934, 102.44309725612402, 601.1782972589135, 1.0, 324.0821885485202, 387.9109931429848, 61.635810336098075, 376.8761484241113, 405.31586066028103, 1235.5713253376307, 1502.8085699125659, 2357.099637640873, 1.0, 1.0, 465.05926667526364, 307.97620121203363, 2914.412521088496, 3000.3524956470355, 575.3186377538368, 1.0, 1.0, 1011.9605519026518, 830.7169372774661, 481.04640463739634, 177.40371085703373, 37.42259948718129, 1.0, 584.4492199420929, 376.1109948065132, 1.0, 208.03636793559417, 1.0, 629.7532384768128, 1034.1130150074605, 174.40219530649483, 148.50972724705935, 473.613621622324, 1.0, 1.0, 1444.633963833563, 3060.9496524157003, 1524.6960969255306, 1682.6852036230266, 1643.3385057067499, 1272.4213460832834, 4928.61272452143, 1.0, 187.70214154943824, 497.95594047755003, 1431.002101497259, 1811.271354328841, 2263.691901795566, 610.1237715780735, 498.6820613257587, 680.0984752792865, 539.8155036652461, 228.61500272061676, 935.3410413186066, 1889.4567504040897, 2170.1986098765046, 3.957123000174761, 466.45629077777267, 1451.054059265647, 463.402809150517, 1.0, 1.0, 969.1211343472824, 1978.5549469981343, 1316.0195218715817, 1.0, 1.0, 463.9968287535012, 3377.2891872674227, 985.6406262377277, 5476.306851937901, 42.20391497388482, 3549.0036893775687, 3998.7825119171757, 6205.503159639426, 7538.695934726788, 1.0, 1059.197124354425, 4939.757020636811, 2404.5530175217427, 313.1466362817446, 175.70854876562953, 1827.379973107949, 1698.4751077978872, 1.0368093145661987, 108.94126968830824, 278.44499674485996, 70.07883510552347, 1330.5754475463182, 670.2898355270736, 1.0, 2427.5614544041455, 1668.1768564879894, 710.0044280122966, 155.82276517152786, 2009.0787224865635, 96.05575835611671, 457.11879441700876, 1.0, 310.56741300970316, 493.1297709532082, 152.01403707265854, 3198.271616205573, 2931.1372296898626, 1242.5804832689464, 1.0, 1455.6567203835584, 1713.3980930729304, 7690.930305542541, 9912.936813060147, 1.0, 295.1902893669903, 1571.2624365870142, 174.93377923965454, 2232.708354600705, 367.64390991814435, 304.790917086415, 731.2902840226889, 2105.051644471474, 310.6291222535074, 3722.062364267069, 1156.1093473439105, 588.6896797940135, 6.809887282550335, 5.030748177319765, 18.845673426054418, 1.0, 356.85509695485234, 1.0, 376.933414064697, 339.94796917703934, 424.7253470066935, 1419.040901420638, 3.868574796244502, 2666.874715040205, 1371.4318665489554, 1.0, 2093.0120356976986, 5294.3555081784725, 139.50270688533783, 1228.4695559360553, 2328.002604674548, 6223.145742516033, 10000.0, 1.0, 1.0, 740.9011666877195, 401.8286631992087, 3521.270220035687, 282.68503775214776, 1.0, 1765.1589084118605, 5442.17215668445, 3069.2791261738166, 1804.0085645504296, 750.7309180700686, 1.0, 35.84618902951479, 842.6065659420565, 668.186024680268, 236.65805005282164, 250.53425304125994, 1121.6463290355168, 110.3178577136714, 2107.2674120143056, 1.0, 508.54542135447264, 858.4495860631578, 635.0985449999571, 4769.39226557035, 1789.6404287563637, 238.19856395479292, 1.0, 1031.7981225401163, 2293.6879343730398, 1502.0215048734099, 4660.54693994578, 10000.0, 96.56978450343013, 1281.0835881195962, 80.75944772944786, 485.2764606514247, 571.9885896071792, 1021.5384034346789, 3224.2602922581136, 7911.830636747181, 6251.446205037762, 3043.4085770663805, 1355.3464920818806, 241.8591693835333, 601.636087724939, 996.5011068768799, 956.1963347501587, 654.7380477301776, 585.8977060429752, 5.001866759732366, 396.47099448088557, 594.1847588678356, 1671.6503680944443, 953.6389436358586, 1367.6476108692586, 4704.1549598276615, 5203.540118873119, 1097.4321624599397, 1697.447981626261, 1858.6091050403193, 340.38377082906663, 79.25137983448803, 2349.108271568548, 3208.8516295687004, 3273.482765735127, 10000.0, 34.78383898921311, 1660.4536070819013, 5899.056290344568, 320.1370525029488, 1478.5744786092546, 2620.5224623312242, 6161.896719133947, 3324.378450043965, 3818.230187542271, 2316.6466899616644, 2304.3692359086126, 1420.425358156208, 1.0, 633.3718140278943, 848.0492555862293, 883.8406137847342, 1291.3596287069377, 1622.3276944123209, 775.9441746454686, 2765.9085996253416, 3874.598165181931, 1632.3764642942697, 657.7319161277264, 3255.3939447999, 5827.585628973786, 730.096984884236, 2566.2853934126906, 3409.089208621037, 2376.3971066996455, 1963.0183054516092, 703.61887526582, 4566.526185607305, 4925.027017390821, 9905.114646494389, 35.58619170449674, 1625.763295097102, 2931.694199513644, 2740.2063310034573, 2983.4158144292887, 2442.411553459242, 2217.0081097413786, 6632.412274128757, 2120.138541149441, 2456.3109709112905, 3854.741478881566, 587.53505121544, 1957.701357319951, 3479.770838933531, 3326.1131919510663, 2445.746721143252, 2236.6908599263115, 853.6246977146075, 1.0, 157.07106557767838, 512.246537450701, 2914.0730499532074, 2.0617796345613897, 102.37142019718885, 2552.6572743840516, 873.9103529892163, 911.0638210531324, 5442.696588129038, 1553.785719791893, 5355.382142000832, 4581.291041465476, 1877.1575424254406, 2718.603292385116, 8684.593533068895, 1316.8409266881645, 1013.1232734234072, 5892.955741555779, 6847.585567176342, 1340.6345389848866, 5562.260928771662, 1526.6164083965123, 3587.479447737336, 2805.9070320762694, 3123.7234021150507, 2077.7450670551043, 596.6158205948304, 1081.237644072622, 1833.2991588320583, 1341.65430483222, 2560.9231996113667, 611.4272732585669, 810.8651841366664, 558.4073169410694, 1544.3803626834415, 334.15180712286383, 1265.6064711743966, 821.4501568251289, 1.4628690537065268, 1775.0662150974385, 3173.0743182348087, 1635.266100474866, 2192.495280586183, 2054.081081681419, 5929.1030028304085, 2910.991944361478, 3534.4696899401024, 291.60106819076464, 2503.6150385702495, 4417.710001049563, 3018.3919816659763, 7509.72682165727, 9832.71353499405, 4633.953964069602, 708.7525165264669, 115.43662101961672, 1.0, 1.0, 1.0, 106.0109132938087, 325.9257718833396, 2751.3938466395484, 1899.4486612947658, 3302.4236615966074, 3451.5770174723584, 2824.082605378004, 637.7140222629532, 544.1266959682107, 2963.1006452236325, 1851.8283904078003, 3401.3831487474963, 3658.8926277623978, 2249.1110632531345, 708.3762599341571, 2926.861533556832, 1698.9397519656195, 3699.6828821543604, 4053.38267078856, 2507.2607212071307, 1646.2665666490793, 1834.469083375996, 2002.3577601984143, 2143.528382030083, 255.6296268068254, 6636.286451335996, 6813.831055935472, 9580.76799288392, 7558.132693387568, 772.6530816571321, 637.6717788423412, 935.5289216861129, 405.96052604168653, 1.0, 601.9792065257207, 2412.861426538788, 2201.4527228805237, 2752.728448646725, 2622.4266723678447, 1850.9954635638278, 1859.6456034493167, 627.2707527913153, 1327.9684291407466, 2392.5281836098293, 3309.527621460147, 2845.9943422369906, 1425.0756745091057, 1689.6761940345168, 297.1099895276129, 1379.3144066041568, 2153.554104843177, 3551.386943246005, 2018.6295150039296, 1602.029671240598, 1810.8035615905683, 4669.877813560888, 3237.6636927048676, 2157.372346266173 ];
num_areas = [ 4.0, 5.0, 7.0, 6.0, 4.0, 10.0, 5.0, 12.0, 5.0, 5.0, 3.0, 6.0, 4.0, 9.0, 6.0, 5.0, 5.0, 10.0, 11.0, 5.0, 9.0, 14.0, 9.0, 10.0, 9.0, 10.0, 18.0, 12.0, 10.0, 3.0, 2.0, 0.0, 0.0, 0.0, 4.0, 6.0, 5.0, 7.0, 15.0, 7.0, 2.0, 6.0, 10.0, 12.0, 18.0, 10.0, 11.0, 6.0, 6.0, 8.0, 8.0, 8.0, 5.0, 10.0, 7.0, 10.0, 8.0, 14.0, 6.0, 8.0, 7.0, 6.0, 3.0, 1.0, 0.0, 0.0, 0.0, 0.0, 8.0, 7.0, 7.0, 7.0, 6.0, 5.0, 7.0, 5.0, 9.0, 7.0, 9.0, 13.0, 12.0, 10.0, 6.0, 6.0, 5.0, 16.0, 5.0, 4.0, 7.0, 7.0, 8.0, 7.0, 1.0, 0.0, 1.0, 3.0, 5.0, 1.0, 2.0, 6.0, 1.0, 1.0, 11.0, 6.0, 11.0, 3.0, 3.0, 5.0, 4.0, 4.0, 4.0, 6.0, 7.0, 18.0, 11.0, 11.0, 13.0, 17.0, 4.0, 20.0, 7.0, 7.0, 8.0, 9.0, 4.0, 5.0, 3.0, 4.0, 5.0, 4.0, 3.0, 6.0, 12.0, 8.0, 3.0, 1.0, 5.0, 8.0, 7.0, 3.0, 6.0, 7.0, 10.0, 14.0, 5.0, 3.0, 9.0, 6.0, 9.0, 7.0, 22.0, 30.0, 23.0, 24.0, 19.0, 7.0, 7.0, 13.0, 8.0, 5.0, 5.0, 10.0, 7.0, 9.0, 10.0, 13.0, 15.0, 6.0, 3.0, 1.0, 6.0, 11.0, 12.0, 12.0, 12.0, 11.0, 13.0, 11.0, 5.0, 9.0, 5.0, 10.0, 25.0, 25.0, 15.0, 20.0, 18.0, 11.0, 23.0, 16.0, 15.0, 13.0, 17.0, 7.0, 17.0, 8.0, 9.0, 14.0, 13.0, 3.0, 14.0, 4.0, 1.0, 0.0, 8.0, 13.0, 9.0, 5.0, 7.0, 9.0, 9.0, 7.0, 6.0, 13.0, 9.0, 27.0, 21.0, 20.0, 13.0, 22.0, 6.0, 3.0, 15.0, 11.0, 20.0, 15.0, 13.0, 11.0, 21.0, 10.0, 8.0, 12.0, 10.0, 13.0, 10.0, 6.0, 1.0, 3.0, 3.0, 12.0, 9.0, 6.0, 10.0, 9.0, 11.0, 8.0, 6.0, 8.0, 4.0, 10.0, 16.0, 20.0, 8.0, 14.0, 10.0, 13.0, 13.0, 8.0, 15.0, 9.0, 10.0, 10.0, 14.0, 11.0, 9.0, 12.0, 9.0, 10.0, 17.0, 4.0, 1.0, 1.0, 4.0, 5.0, 4.0, 7.0, 10.0, 8.0, 9.0, 10.0, 3.0, 9.0, 6.0, 6.0, 6.0, 22.0, 11.0, 11.0, 11.0, 8.0, 9.0, 9.0, 8.0, 22.0, 15.0, 20.0, 11.0, 7.0, 6.0, 8.0, 11.0, 13.0, 28.0, 12.0, 1.0, 2.0, 5.0, 3.0, 3.0, 7.0, 15.0, 9.0, 11.0, 10.0, 10.0, 13.0, 8.0, 4.0, 16.0, 8.0, 12.0, 22.0, 10.0, 4.0, 8.0, 5.0, 26.0, 28.0, 16.0, 24.0, 18.0, 11.0, 10.0, 6.0, 11.0, 13.0, 24.0, 12.0, 4.0, 9.0, 5.0, 4.0, 7.0, 5.0, 6.0, 8.0, 4.0, 3.0, 4.0, 3.0, 4.0, 6.0, 10.0, 6.0, 7.0, 18.0, 11.0, 14.0, 9.0, 12.0, 15.0, 18.0, 25.0, 11.0, 8.0, 11.0, 4.0, 8.0, 13.0, 15.0, 12.0, 10.0, 14.0, 11.0, 4.0, 3.0, 7.0, 4.0, 5.0, 6.0, 8.0, 7.0, 13.0, 4.0, 6.0, 9.0, 9.0, 4.0, 4.0, 2.0, 10.0, 18.0, 22.0, 15.0, 17.0, 20.0, 8.0, 12.0, 16.0, 17.0, 10.0, 7.0, 11.0, 12.0, 9.0, 10.0, 15.0, 9.0, 3.0, 2.0, 5.0, 10.0, 6.0, 8.0, 5.0, 10.0, 7.0, 9.0, 8.0, 6.0, 5.0, 4.0, 7.0, 3.0, 9.0, 14.0, 17.0, 11.0, 13.0, 13.0, 14.0, 12.0, 8.0, 15.0, 8.0, 7.0, 8.0, 4.0, 13.0, 13.0, 12.0, 7.0, 6.0, 6.0, 6.0, 7.0, 6.0, 3.0, 7.0, 5.0, 7.0, 6.0, 6.0, 7.0, 11.0, 8.0, 14.0, 10.0, 9.0, 9.0, 4.0, 7.0, 7.0, 16.0, 11.0, 14.0, 7.0, 8.0, 8.0, 12.0, 12.0, 6.0, 8.0, 10.0, 7.0, 15.0, 8.0, 5.0, 5.0, 7.0, 5.0, 5.0, 5.0, 12.0, 18.0, 19.0, 15.0, 14.0, 15.0, 15.0, 12.0, 13.0, 7.0, 7.0, 7.0, 11.0, 16.0, 16.0, 10.0, 14.0, 13.0, 12.0, 13.0, 20.0, 21.0, 10.0, 5.0, 7.0, 4.0, 10.0, 8.0, 6.0, 4.0, 10.0, 11.0, 11.0, 8.0, 15.0, 30.0, 24.0, 13.0, 16.0, 8.0, 15.0, 11.0, 10.0, 10.0, 7.0, 9.0, 14.0, 21.0, 9.0, 17.0, 11.0, 16.0, 8.0, 24.0, 18.0, 15.0, 19.0, 3.0, 5.0, 9.0, 4.0, 6.0, 6.0, 4.0, 9.0, 7.0, 10.0, 9.0, 11.0, 16.0, 17.0, 10.0, 13.0, 12.0, 11.0, 10.0, 8.0, 6.0, 4.0, 8.0, 21.0, 12.0, 13.0, 11.0, 15.0, 22.0, 8.0, 22.0, 22.0, 29.0, 25.0, 7.0, 1.0, 6.0, 9.0, 5.0, 6.0, 6.0, 7.0, 7.0, 8.0, 7.0, 12.0, 16.0, 18.0, 11.0, 19.0, 16.0, 10.0, 9.0, 3.0, 8.0, 2.0, 2.0, 4.0, 8.0, 18.0, 8.0, 11.0, 16.0, 11.0, 16.0, 11.0, 24.0, 9.0, 8.0, 3.0, 2.0, 2.0, 5.0, 4.0, 7.0, 7.0, 3.0, 13.0, 8.0, 11.0, 10.0, 10.0, 9.0, 7.0, 12.0, 14.0, 10.0, 7.0, 7.0, 3.0, 5.0, 5.0, 3.0, 7.0, 8.0, 8.0, 7.0, 6.0, 5.0, 4.0, 7.0, 10.0, 8.0, 4.0, 3.0, 2.0, 4.0, 3.0, 2.0, 8.0, 10.0, 9.0, 8.0, 7.0, 5.0, 13.0, 17.0, 20.0, 15.0, 25.0, 19.0, 8.0, 12.0, 6.0, 13.0, 8.0, 6.0, 15.0, 7.0, 11.0, 10.0, 3.0, 6.0, 4.0, 10.0, 8.0, 10.0, 2.0, 3.0, 5.0, 6.0, 4.0, 4.0, 5.0, 3.0, 2.0, 5.0, 2.0, 0.0, 15.0, 15.0, 18.0, 10.0, 11.0, 8.0, 9.0, 15.0, 11.0, 12.0, 13.0, 11.0, 2.0, 9.0, 14.0, 15.0, 7.0, 9.0, 12.0, 5.0, 9.0, 10.0, 2.0, 1.0, 10.0, 11.0, 11.0, 5.0, 6.0, 13.0, 3.0, 2.0, 4.0, 9.0, 9.0, 9.0, 14.0, 14.0, 7.0, 8.0, 17.0, 17.0, 8.0, 8.0, 10.0, 10.0, 4.0, 12.0, 13.0, 14.0, 11.0, 8.0, 12.0, 15.0, 11.0, 7.0, 5.0, 4.0, 1.0, 2.0, 15.0, 2.0, 2.0, 0.0, 3.0, 7.0, 10.0, 13.0, 13.0, 16.0, 18.0, 9.0, 14.0, 16.0, 14.0, 21.0, 12.0, 16.0, 18.0, 17.0, 10.0, 15.0, 15.0, 16.0, 11.0, 14.0, 11.0, 28.0, 17.0, 8.0, 4.0, 1.0, 2.0, 1.0, 9.0, 6.0, 5.0, 1.0, 3.0, 10.0, 8.0, 8.0, 19.0, 23.0, 19.0, 14.0, 21.0, 17.0, 12.0, 11.0, 18.0, 11.0, 15.0, 11.0, 14.0, 18.0, 6.0, 18.0, 7.0, 17.0, 14.0, 25.0, 18.0, 19.0, 9.0, 14.0, 9.0, 0.0, 7.0, 9.0, 4.0, 8.0, 11.0, 4.0, 6.0, 7.0, 20.0, 23.0, 21.0, 13.0, 23.0, 15.0, 8.0, 7.0, 16.0, 13.0, 12.0, 11.0, 15.0, 12.0, 11.0, 12.0, 23.0, 17.0, 15.0, 25.0, 24.0, 15.0, 6.0, 9.0, 10.0, 0.0, 3.0, 5.0, 9.0, 9.0, 5.0, 8.0, 10.0, 10.0, 11.0, 28.0, 17.0, 14.0, 8.0, 11.0, 8.0, 6.0, 16.0, 15.0, 13.0, 11.0, 15.0, 19.0, 12.0, 15.0, 21.0, 14.0, 11.0, 17.0, 24.0, 13.0, 7.0, 3.0, 14.0, 0.0, 3.0, 8.0, 4.0, 6.0, 8.0, 11.0, 7.0, 13.0, 8.0, 21.0, 21.0, 19.0, 10.0, 5.0, 15.0, 8.0, 8.0, 19.0, 15.0, 14.0, 18.0, 18.0, 13.0, 18.0, 17.0, 14.0, 11.0, 12.0, 10.0, 7.0, 3.0, 4.0, 3.0, 0.0, 1.0, 8.0, 1.0, 6.0, 9.0, 9.0, 16.0, 8.0, 7.0, 8.0, 16.0, 12.0, 11.0, 6.0, 21.0, 17.0, 11.0, 8.0, 15.0, 7.0, 8.0, 18.0, 19.0, 15.0, 10.0, 14.0, 17.0, 9.0, 6.0, 11.0, 3.0, 2.0, 10.0, 0.0, 2.0, 5.0, 7.0, 7.0, 5.0, 3.0, 5.0, 7.0, 5.0, 8.0, 14.0, 15.0, 10.0, 8.0, 13.0, 13.0, 17.0, 29.0, 22.0, 18.0, 12.0, 6.0, 9.0, 10.0, 15.0, 14.0, 18.0, 14.0, 14.0, 11.0, 10.0, 3.0, 13.0, 2.0, 4.0, 4.0, 7.0, 3.0, 4.0, 6.0, 1.0, 3.0, 6.0, 3.0, 7.0, 14.0, 7.0, 5.0, 11.0, 18.0, 19.0, 14.0, 17.0, 15.0, 17.0, 9.0, 7.0, 5.0, 19.0, 26.0, 25.0, 21.0, 11.0, 15.0, 12.0, 7.0, 0.0, 8.0, 7.0, 8.0, 3.0, 2.0, 2.0, 5.0, 2.0, 4.0, 6.0, 5.0, 16.0, 20.0, 7.0, 9.0, 5.0, 22.0, 16.0, 8.0, 14.0, 10.0, 17.0, 14.0, 12.0, 7.0, 17.0, 15.0, 24.0, 9.0, 13.0, 26.0, 6.0, 5.0, 1.0, 4.0, 10.0, 8.0, 5.0, 4.0, 2.0, 3.0, 5.0, 3.0, 6.0, 4.0, 4.0, 12.0, 7.0, 8.0, 2.0, 8.0, 20.0, 9.0, 24.0, 28.0, 13.0, 10.0, 20.0, 19.0, 27.0, 12.0, 8.0, 4.0, 13.0, 23.0, 8.0, 6.0, 1.0, 7.0, 6.0, 9.0, 9.0, 5.0, 3.0, 3.0, 5.0, 4.0, 6.0, 3.0, 7.0, 8.0, 9.0, 9.0, 2.0, 5.0, 15.0, 18.0, 15.0, 21.0, 8.0, 11.0, 18.0, 11.0, 13.0, 12.0, 9.0, 10.0, 7.0, 3.0, 23.0, 8.0, 7.0, 7.0, 7.0, 7.0, 5.0, 3.0, 2.0, 4.0, 3.0, 2.0, 5.0, 8.0, 2.0, 8.0, 4.0, 5.0, 4.0, 5.0, 3.0, 4.0, 11.0, 6.0, 6.0, 12.0, 14.0, 9.0, 12.0, 13.0, 4.0, 9.0, 9.0, 15.0, 8.0, 7.0, 8.0, 6.0, 7.0, 3.0, 1.0, 5.0, 6.0, 6.0, 7.0, 4.0, 9.0, 10.0, 8.0, 8.0, 9.0, 8.0, 6.0, 7.0, 9.0, 10.0, 7.0, 3.0, 3.0, 4.0, 4.0, 4.0, 7.0, 7.0, 3.0, 10.0, 9.0, 7.0, 13.0, 12.0, 11.0 ];
num_trees = [ 1.0, 11.0, 1.0, 18.0, 10.0, 17.0, 21.0, 11.0, 1.0, 1.0, 1.0, 1.0, 1.0, 1.0, 1.0, 1.0, 1.0, 1.0, 14.0, 4.0, 14.0, 19.0, 24.0, 11.0, 7.0, 15.0, 5.0, 1.0, 1.0, 1.0, 1.0, 1.0, 1.0, 1.0, 1.0, 8.0, 9.0, 20.0, 11.0, 6.0, 8.0, 1.0, 1.0, 1.0, 1.0, 1.0, 1.0, 1.0, 1.0, 1.0, 1.0, 1.0, 11.0, 1.0, 7.0, 8.0, 1.0, 1.0, 14.0, 22.0, 22.0, 2.0, 1.0, 1.0, 1.0, 1.0, 1.0, 1.0, 25.0, 19.0, 20.0, 1.0, 20.0, 1.0, 16.0, 1.0, 1.0, 4.0, 1.0, 1.0, 1.0, 1.0, 1.0, 1.0, 1.0, 1.0, 1.0, 1.0, 4.0, 1.0, 1.0, 1.0, 7.0, 1.0, 1.0, 1.0, 1.0, 1.0, 1.0, 1.0, 1.0, 1.0, 18.0, 2.0, 16.0, 1.0, 23.0, 1.0, 8.0, 1.0, 1.0, 5.0, 1.0, 1.0, 1.0, 1.0, 1.0, 1.0, 1.0, 1.0, 1.0, 1.0, 1.0, 1.0, 10.0, 1.0, 1.0, 1.0, 1.0, 1.0, 1.0, 1.0, 1.0, 1.0, 1.0, 1.0, 7.0, 18.0, 31.0, 20.0, 20.0, 1.0, 1.0, 1.0, 4.0, 1.0, 1.0, 1.0, 1.0, 1.0, 1.0, 1.0, 1.0, 1.0, 1.0, 1.0, 1.0, 1.0, 1.0, 1.0, 1.0, 1.0, 1.0, 1.0, 1.0, 1.0, 1.0, 1.0, 1.0, 1.0, 1.0, 1.0, 7.0, 4.0, 10.0, 9.0, 1.0, 1.0, 2.0, 1.0, 1.0, 1.0, 1.0, 1.0, 1.0, 1.0, 1.0, 1.0, 1.0, 1.0, 1.0, 1.0, 1.0, 1.0, 1.0, 1.0, 1.0, 1.0, 1.0, 1.0, 1.0, 1.0, 1.0, 1.0, 1.0, 1.0, 1.0, 5.0, 1.0, 1.0, 1.0, 1.0, 5.0, 1.0, 1.0, 1.0, 1.0, 1.0, 1.0, 1.0, 1.0, 1.0, 1.0, 1.0, 1.0, 1.0, 1.0, 1.0, 1.0, 1.0, 1.0, 1.0, 1.0, 1.0, 1.0, 1.0, 1.0, 1.0, 1.0, 1.0, 1.0, 2.0, 2.0, 1.0, 1.0, 1.0, 8.0, 1.0, 1.0, 1.0, 1.0, 1.0, 1.0, 1.0, 1.0, 1.0, 1.0, 1.0, 1.0, 1.0, 1.0, 1.0, 7.0, 6.0, 1.0, 1.0, 1.0, 1.0, 1.0, 1.0, 1.0, 1.0, 1.0, 1.0, 1.0, 5.0, 2.0, 10.0, 7.0, 1.0, 1.0, 1.0, 1.0, 1.0, 1.0, 1.0, 1.0, 1.0, 9.0, 1.0, 1.0, 1.0, 1.0, 1.0, 1.0, 1.0, 1.0, 1.0, 1.0, 1.0, 1.0, 1.0, 1.0, 1.0, 1.0, 1.0, 1.0, 1.0, 1.0, 9.0, 1.0, 3.0, 4.0, 1.0, 1.0, 1.0, 1.0, 1.0, 1.0, 1.0, 1.0, 1.0, 2.0, 1.0, 1.0, 1.0, 1.0, 1.0, 1.0, 1.0, 1.0, 1.0, 1.0, 1.0, 1.0, 1.0, 1.0, 1.0, 1.0, 1.0, 1.0, 1.0, 1.0, 2.0, 8.0, 1.0, 1.0, 1.0, 1.0, 1.0, 1.0, 1.0, 1.0, 1.0, 1.0, 1.0, 9.0, 4.0, 4.0, 1.0, 1.0, 1.0, 1.0, 1.0, 1.0, 1.0, 1.0, 1.0, 1.0, 1.0, 1.0, 1.0, 1.0, 1.0, 1.0, 1.0, 1.0, 1.0, 3.0, 1.0, 1.0, 1.0, 1.0, 1.0, 1.0, 1.0, 1.0, 1.0, 1.0, 1.0, 1.0, 1.0, 1.0, 1.0, 1.0, 1.0, 1.0, 1.0, 1.0, 1.0, 1.0, 1.0, 1.0, 1.0, 1.0, 1.0, 10.0, 1.0, 1.0, 1.0, 2.0, 1.0, 1.0, 1.0, 1.0, 1.0, 1.0, 1.0, 1.0, 1.0, 1.0, 1.0, 1.0, 1.0, 1.0, 1.0, 1.0, 1.0, 1.0, 1.0, 1.0, 1.0, 1.0, 1.0, 10.0, 1.0, 9.0, 17.0, 1.0, 3.0, 4.0, 1.0, 1.0, 1.0, 4.0, 1.0, 1.0, 1.0, 5.0, 14.0, 1.0, 1.0, 1.0, 1.0, 1.0, 1.0, 1.0, 1.0, 1.0, 1.0, 1.0, 1.0, 1.0, 1.0, 1.0, 1.0, 1.0, 1.0, 12.0, 1.0, 1.0, 39.0, 1.0, 4.0, 2.0, 1.0, 1.0, 1.0, 1.0, 1.0, 1.0, 1.0, 1.0, 1.0, 1.0, 1.0, 1.0, 1.0, 1.0, 1.0, 1.0, 1.0, 1.0, 1.0, 1.0, 1.0, 1.0, 1.0, 1.0, 1.0, 1.0, 1.0, 3.0, 1.0, 1.0, 8.0, 1.0, 1.0, 5.0, 24.0, 1.0, 1.0, 1.0, 1.0, 27.0, 4.0, 1.0, 3.0, 1.0, 1.0, 1.0, 1.0, 1.0, 1.0, 1.0, 1.0, 1.0, 1.0, 1.0, 12.0, 1.0, 1.0, 1.0, 1.0, 1.0, 1.0, 1.0, 1.0, 1.0, 1.0, 1.0, 1.0, 1.0, 30.0, 1.0, 1.0, 1.0, 6.0, 25.0, 1.0, 1.0, 10.0, 1.0, 1.0, 1.0, 1.0, 1.0, 1.0, 1.0, 1.0, 1.0, 1.0, 1.0, 1.0, 1.0, 1.0, 1.0, 1.0, 1.0, 1.0, 1.0, 1.0, 1.0, 1.0, 1.0, 1.0, 1.0, 1.0, 1.0, 1.0, 1.0, 2.0, 1.0, 1.0, 1.0, 1.0, 6.0, 1.0, 1.0, 1.0, 1.0, 1.0, 1.0, 1.0, 1.0, 1.0, 1.0, 1.0, 1.0, 1.0, 1.0, 1.0, 1.0, 2.0, 1.0, 1.0, 1.0, 5.0, 5.0, 1.0, 1.0, 1.0, 1.0, 1.0, 7.0, 1.0, 1.0, 1.0, 1.0, 1.0, 2.0, 1.0, 1.0, 1.0, 1.0, 1.0, 1.0, 1.0, 1.0, 1.0, 1.0, 1.0, 1.0, 1.0, 1.0, 7.0, 14.0, 20.0, 3.0, 7.0, 1.0, 5.0, 1.0, 1.0, 1.0, 1.0, 1.0, 1.0, 1.0, 1.0, 1.0, 1.0, 3.0, 4.0, 1.0, 1.0, 16.0, 1.0, 1.0, 1.0, 1.0, 1.0, 1.0, 3.0, 5.0, 1.0, 1.0, 1.0, 7.0, 7.0, 10.0, 1.0, 1.0, 11.0, 15.0, 7.0, 1.0, 1.0, 1.0, 1.0, 1.0, 1.0, 2.0, 1.0, 1.0, 1.0, 1.0, 1.0, 1.0, 1.0, 13.0, 1.0, 1.0, 1.0, 1.0, 1.0, 1.0, 1.0, 4.0, 1.0, 1.0, 1.0, 5.0, 1.0, 1.0, 1.0, 1.0, 5.0, 6.0, 20.0, 12.0, 1.0, 1.0, 1.0, 1.0, 1.0, 1.0, 1.0, 1.0, 23.0, 1.0, 1.0, 1.0, 1.0, 1.0, 1.0, 1.0, 3.0, 2.0, 1.0, 1.0, 1.0, 1.0, 1.0, 1.0, 1.0, 1.0, 1.0, 1.0, 1.0, 1.0, 1.0, 1.0, 1.0, 17.0, 1.0, 1.0, 1.0, 1.0, 1.0, 1.0, 1.0, 1.0, 29.0, 1.0, 1.0, 1.0, 1.0, 1.0, 1.0, 1.0, 1.0, 1.0, 1.0, 1.0, 1.0, 1.0, 1.0, 1.0, 1.0, 1.0, 1.0, 1.0, 1.0, 1.0, 1.0, 1.0, 1.0, 11.0, 6.0, 1.0, 1.0, 1.0, 1.0, 1.0, 1.0, 1.0, 1.0, 1.0, 1.0, 1.0, 1.0, 1.0, 1.0, 1.0, 1.0, 1.0, 1.0, 1.0, 1.0, 1.0, 1.0, 1.0, 3.0, 1.0, 1.0, 1.0, 1.0, 1.0, 1.0, 1.0, 1.0, 1.0, 2.0, 1.0, 1.0, 1.0, 1.0, 1.0, 1.0, 1.0, 4.0, 1.0, 1.0, 1.0, 1.0, 1.0, 1.0, 1.0, 1.0, 1.0, 1.0, 1.0, 1.0, 1.0, 1.0, 1.0, 3.0, 3.0, 1.0, 1.0, 1.0, 1.0, 1.0, 1.0, 1.0, 1.0, 1.0, 9.0, 1.0, 1.0, 1.0, 1.0, 1.0, 1.0, 1.0, 2.0, 1.0, 1.0, 1.0, 1.0, 1.0, 1.0, 1.0, 1.0, 1.0, 1.0, 1.0, 1.0, 1.0, 1.0, 1.0, 1.0, 1.0, 1.0, 1.0, 1.0, 1.0, 1.0, 1.0, 1.0, 1.0, 1.0, 1.0, 1.0, 1.0, 1.0, 11.0, 5.0, 1.0, 5.0, 1.0, 1.0, 1.0, 1.0, 1.0, 1.0, 1.0, 1.0, 1.0, 1.0, 1.0, 1.0, 1.0, 1.0, 1.0, 1.0, 1.0, 1.0, 1.0, 1.0, 1.0, 1.0, 1.0, 1.0, 1.0, 1.0, 1.0, 1.0, 1.0, 1.0, 7.0, 7.0, 1.0, 1.0, 1.0, 1.0, 6.0, 3.0, 1.0, 1.0, 1.0, 1.0, 1.0, 1.0, 1.0, 10.0, 5.0, 1.0, 1.0, 1.0, 1.0, 1.0, 1.0, 1.0, 1.0, 1.0, 1.0, 1.0, 1.0, 1.0, 1.0, 1.0, 1.0, 1.0, 1.0, 2.0, 2.0, 1.0, 1.0, 1.0, 7.0, 14.0, 1.0, 1.0, 1.0, 1.0, 1.0, 1.0, 1.0, 1.0, 1.0, 1.0, 1.0, 1.0, 1.0, 1.0, 1.0, 1.0, 1.0, 1.0, 1.0, 1.0, 1.0, 1.0, 1.0, 1.0, 1.0, 1.0, 1.0, 1.0, 2.0, 1.0, 1.0, 1.0, 1.0, 17.0, 1.0, 5.0, 1.0, 1.0, 1.0, 1.0, 1.0, 1.0, 1.0, 1.0, 1.0, 1.0, 1.0, 1.0, 1.0, 1.0, 1.0, 1.0, 1.0, 1.0, 1.0, 1.0, 1.0, 1.0, 1.0, 1.0, 1.0, 1.0, 1.0, 1.0, 1.0, 1.0, 1.0, 15.0, 3.0, 1.0, 1.0, 1.0, 1.0, 1.0, 1.0, 1.0, 1.0, 1.0, 1.0, 1.0, 1.0, 1.0, 1.0, 1.0, 1.0, 11.0, 9.0, 1.0, 1.0, 1.0, 1.0, 1.0, 1.0, 1.0, 1.0, 1.0, 1.0, 1.0, 1.0, 1.0, 1.0, 5.0, 13.0, 1.0, 1.0, 1.0, 1.0, 2.0, 1.0, 1.0, 1.0, 1.0, 1.0, 1.0, 1.0, 1.0, 1.0, 1.0, 1.0, 9.0, 9.0, 1.0, 1.0, 1.0, 1.0, 1.0, 1.0, 1.0, 1.0, 1.0, 1.0, 1.0, 1.0, 1.0, 1.0, 1.0, 5.0, 1.0, 1.0, 1.0, 1.0, 1.0, 1.0, 1.0, 1.0, 1.0, 1.0, 1.0, 1.0, 1.0, 1.0, 1.0, 1.0, 22.0, 1.0, 1.0, 1.0, 1.0, 1.0, 1.0, 1.0, 1.0, 1.0, 1.0, 1.0, 1.0, 1.0, 1.0, 1.0, 1.0, 14.0, 1.0, 1.0, 1.0, 1.0, 1.0, 7.0, 7.0, 1.0, 1.0, 1.0, 2.0, 8.0, 1.0, 1.0, 5.0, 7.0, 9.0, 1.0, 1.0, 8.0, 9.0, 1.0, 1.0, 1.0, 1.0, 1.0, 1.0, 1.0, 1.0, 1.0, 1.0, 1.0, 1.0, 16.0, 4.0, 1.0, 1.0, 1.0, 10.0, 3.0, 1.0, 1.0, 1.0, 1.0, 1.0, 1.0, 1.0, 1.0, 1.0, 1.0, 5.0, 1.0, 4.0, 9.0, 1.0, 1.0 ];
densities = [ 154.04410685768514, 855.8973879529844, 8435.508892052298, 8459.43345486984, 8459.43345486984, 8459.43345486984, 8459.43345486984, 8459.43345486984, 8459.43345486984, 9369.416735139795, 9297.540723904254, 8903.853118105586, 8772.568214656818, 7696.0172355128125, 6395.499409265785, 6196.031328740634, 6196.031328740634, 6196.031328740634, 6196.031328740634, 6196.031328740634, 6196.031328740634, 6196.031328740634, 6196.031328740634, 6196.031328740634, 6196.031328740634, 6196.031328740634, 6196.031328740634, 4667.923216908287, 2852.3778782838153, 2783.931149597261, 2783.931149597261, 2783.931149597261, 1322.4406340569758, 52.25640720949753, 154.04410685768514, 154.04410685768514, 7188.297956358378, 8459.43345486984, 8459.43345486984, 8459.43345486984, 8459.43345486984, 8459.43345486984, 8895.157068041268, 10034.228235868675, 9654.340092833654, 9048.88262163692, 9048.88262163692, 9048.88262163692, 9035.221120035789, 8603.832875326101, 7946.749533700788, 7282.807715660347, 6623.224876545696, 6204.52535168849, 6196.031328740634, 6196.031328740634, 6196.031328740634, 6196.031328740634, 6196.031328740634, 6196.031328740634, 4546.075073119227, 3011.5171856909083, 2783.931149597261, 2783.931149597261, 2783.931149597261, 2783.931149597261, 2370.942165386005, 326.2185356851035, 4550.401685865239, 6398.580642769261, 8268.820110297831, 8459.43345486984, 8459.43345486984, 8459.43345486984, 8459.43345486984, 8588.032536411332, 9888.128597922578, 10042.6106559624, 10021.079650914482, 9169.174702782746, 9048.88262163692, 9048.88262163692, 9048.88262163692, 9048.88262163692, 9048.88262163692, 9048.88262163692, 9048.88262163692, 8824.687666669031, 8194.062513198545, 7577.977924105845, 6953.601709906927, 6521.348777910221, 6211.01258373223, 6196.031328740634, 3837.8657025121615, 2783.931149597261, 2783.931149597261, 2783.931149597261, 2783.931149597261, 2783.931149597261, 2783.931149597261, 2728.994994702353, 8459.43345486984, 8459.43345486984, 8459.43345486984, 8459.43345486984, 8459.43345486984, 8459.43345486984, 8461.791449007704, 9557.860969165215, 10042.6106559624, 10042.6106559624, 10042.6106559624, 9645.027710976232, 9048.88262163692, 9048.88262163692, 9048.88262163692, 9048.88262163692, 9048.88262163692, 9048.88262163692, 9048.88262163692, 9048.88262163692, 9048.88262163692, 9048.88262163692, 9048.88262163692, 9048.88262163692, 6713.8692527091325, 4038.423037177931, 3408.3223515281766, 2783.931149597261, 2783.931149597261, 2783.931149597261, 2783.931149597261, 2783.931149597261, 2783.931149597261, 2783.931149597261, 8459.43345486984, 8459.43345486984, 8459.43345486984, 8459.43345486984, 8459.43345486984, 8459.43345486984, 9082.589004525775, 10042.6106559624, 10042.6106559624, 10042.6106559624, 10042.6106559624, 10021.63552543772, 9174.200098558453, 9048.88262163692, 9048.88262163692, 9048.88262163692, 9048.88262163692, 9048.88262163692, 9048.88262163692, 9048.88262163692, 9048.88262163692, 9048.88262163692, 9048.88262163692, 9048.88262163692, 8557.799766378728, 3067.161985090236, 2783.931149597261, 2783.931149597261, 2783.931149597261, 2783.931149597261, 2783.931149597261, 2783.931149597261, 2327.6850075901934, 1644.144460866092, 8459.43345486984, 8459.43345486984, 8459.43345486984, 8459.43345486984, 8459.43345486984, 8685.938819555939, 9968.887743543533, 10042.6106559624, 10042.6106559624, 10042.6106559624, 10042.6106559624, 10042.6106559624, 9639.698252122187, 9048.88262163692, 9048.88262163692, 9048.88262163692, 9048.88262163692, 9048.88262163692, 9048.88262163692, 9048.88262163692, 9048.88262163692, 9048.88262163692, 9048.88262163692, 9048.88262163692, 9048.88262163692, 5673.495448993069, 2783.931149597261, 2783.931149597261, 2783.931149597261, 2783.931149597261, 2783.931149597261, 2783.931149597261, 577.5220547176444, 620.6107864247265, 8459.43345486984, 8459.43345486984, 8459.43345486984, 8459.43345486984, 8508.46624487706, 9716.870948053156, 10042.6106559624, 10042.6106559624, 10042.6106559624, 10042.6106559624, 10042.6106559624, 10042.6106559624, 10015.832305371538, 9156.68887326346, 9048.88262163692, 9048.88262163692, 9048.88262163692, 9048.88262163692, 9048.88262163692, 9048.88262163692, 9048.88262163692, 9048.88262163692, 9048.88262163692, 9048.88262163692, 9048.88262163692, 8608.169857824785, 3193.92738965998, 2783.931149597261, 2783.931149597261, 2783.931149597261, 2783.931149597261, 2783.931149597261, 2753.265289420307, 2506.706552336031, 8459.43345486984, 8459.43345486984, 8459.43345486984, 8459.43345486984, 9311.792880108538, 10042.6106559624, 10042.6106559624, 10042.6106559624, 10042.6106559624, 10042.6106559624, 10042.6106559624, 10042.6106559624, 10042.6106559624, 9615.621196674774, 9048.88262163692, 9048.88262163692, 9048.88262163692, 9048.88262163692, 9048.88262163692, 9048.88262163692, 9048.88262163692, 9048.88262163692, 9048.88262163692, 9048.88262163692, 9048.88262163692, 9048.88262163692, 6114.507221837786, 2783.931149597261, 2783.931149597261, 2783.931149597261, 2783.931149597261, 2783.931149597261, 2783.931149597261, 2703.1961167957966, 8459.43345486984, 8459.43345486984, 8459.43345486984, 8832.477622273615, 10025.03730990546, 10042.6106559624, 10042.6106559624, 10042.6106559624, 10042.6106559624, 10042.6106559624, 10042.6106559624, 10042.6106559624, 10042.6106559624, 10009.734788853712, 9148.479046500508, 9048.88262163692, 9048.88262163692, 9048.88262163692, 9048.88262163692, 9048.88262163692, 9048.88262163692, 9048.88262163692, 9048.88262163692, 9048.88262163692, 9048.88262163692, 9048.88262163692, 8818.081916029236, 3469.154064040041, 2783.931149597261, 2783.931149597261, 2783.931149597261, 2783.931149597261, 2783.931149597261, 2783.931149597261, 8459.43345486984, 8459.43345486984, 8558.472515001959, 9848.724327731377, 10042.6106559624, 10042.6106559624, 10042.6106559624, 10042.6106559624, 10042.6106559624, 10042.6106559624, 10042.6106559624, 10042.6106559624, 10042.6106559624, 10042.6106559624, 9593.013836871449, 9048.88262163692, 9048.88262163692, 9048.88262163692, 9048.88262163692, 9012.245366044182, 9048.88262163692, 9048.88262163692, 9048.88262163692, 9048.88262163692, 9048.88262163692, 9048.88262163692, 9048.88262163692, 6635.711754545647, 2783.931149597261, 2783.931149597261, 2783.931149597261, 2783.931149597261, 2783.931149597261, 2783.931149597261, 8459.43345486984, 8459.43345486984, 9489.794023615354, 10042.6106559624, 10042.6106559624, 10042.6106559624, 10042.6106559624, 10042.6106559624, 10042.6106559624, 10042.6106559624, 10042.6106559624, 10042.6106559624, 10042.6106559624, 10042.6106559624, 9994.735679860069, 9120.158423917183, 8729.786884127097, 8168.602480967746, 7544.046539612457, 7441.708590399544, 8995.633022498845, 9048.88262163692, 9048.88262163692, 9048.88262163692, 9048.88262163692, 9048.88262163692, 9048.88262163692, 8973.172515267577, 3823.6999798999486, 2783.931149597261, 2783.931149597261, 2783.931149597261, 2783.931149597261, 2783.931149597261, 8459.43345486984, 9006.992044338094, 10042.571076547823, 10042.6106559624, 10042.6106559624, 10042.6106559624, 10042.6106559624, 10042.6106559624, 10042.6106559624, 10042.6106559624, 10042.6106559624, 10042.6106559624, 10042.434423491393, 9932.763493349537, 9731.053937942026, 8263.084805667126, 7030.406603804736, 7030.406603804736, 7030.406603804736, 7030.406603804736, 7798.721113574087, 9048.88262163692, 9048.88262163692, 9048.88262163692, 9048.88262163692, 9048.88262163692, 9048.88262163692, 9048.88262163692, 7112.766937299265, 2783.931149597261, 2783.931149597261, 2783.931149597261, 2783.931149597261, 2783.931149597261, 8653.116484660057, 9936.874379826813, 10042.6106559624, 10042.6106559624, 10042.6106559624, 10042.6106559624, 10042.6106559624, 10042.6106559624, 10042.6106559624, 10042.6106559624, 9950.347580228796, 9734.592418542858, 9538.513013565605, 9447.14000638797, 9447.14000638797, 8742.946558743348, 7030.406603804736, 7030.406603804736, 7030.406603804736, 7030.406603804736, 7031.79918245098, 8253.623655675894, 9048.88262163692, 9048.88262163692, 9048.88262163692, 9048.88262163692, 9048.88262163692, 9048.88262163692, 9040.792321204719, 4267.482965112958, 2783.931149597261, 2783.931149597261, 2783.931149597261, 2783.931149597261, 9643.803238859653, 10042.6106559624, 10042.6106559624, 10042.6106559624, 10042.6106559624, 10042.6106559624, 10042.6106559624, 10042.6106559624, 10042.6106559624, 10042.6106559624, 9698.281778559598, 9447.14000638797, 9447.14000638797, 9447.14000638797, 9447.14000638797, 9251.287121910022, 7034.475963998583, 7030.406603804736, 7030.406603804736, 7030.406603804736, 7030.406603804736, 7180.507033702712, 9009.463335392767, 9048.88262163692, 9048.88262163692, 9048.88262163692, 9048.88262163692, 9048.88262163692, 9048.88262163692, 7654.877304106927, 2769.765691229504, 2716.83069336052, 2632.7708198434057, 2458.6159428424107, 10042.6106559624, 10042.6106559624, 10042.6106559624, 10042.6106559624, 10042.6106559624, 10042.6106559624, 10042.6106559624, 10042.6106559624, 10042.6106559624, 10042.6106559624, 9770.906363940418, 9447.14000638797, 9447.14000638797, 9447.14000638797, 9447.14000638797, 9447.14000638797, 7343.97456197775, 7030.406603804736, 7030.406603804736, 7030.406603804736, 7030.406603804736, 7030.406603804736, 8509.030558973509, 9048.88262163692, 9048.88262163692, 9047.390992471448, 8973.718382823883, 8921.043652463663, 8909.645954298758, 8901.952986255117, 2582.422212304906, 1924.5733609073948, 1924.5733609073948, 1924.5733609073948, 10042.6106559624, 10042.6106559624, 10042.6106559624, 10042.6106559624, 10042.6106559624, 10042.6106559624, 10042.6106559624, 10042.6106559624, 10042.6106559624, 10042.6106559624, 9832.594237929741, 9447.14000638797, 9447.14000638797, 9447.14000638797, 9447.14000638797, 9447.14000638797, 7845.908474487293, 7030.406603804736, 7030.406603804736, 7030.406603804736, 7030.406603804736, 7030.406603804736, 8293.656748871816, 9045.462546008685, 8994.026536066578, 8916.638583873488, 8890.553464881285, 8890.553464881285, 8890.553464881285, 8890.553464881285, 3808.716853817759, 1924.5733609073948, 1924.5733609073948, 1924.5733609073948, 10042.6106559624, 10042.6106559624, 10042.6106559624, 10042.6106559624, 10042.6106559624, 10042.6106559624, 10042.6106559624, 10042.6106559624, 10042.6106559624, 10042.6106559624, 9850.013644010796, 9447.14000638797, 9447.14000638797, 9447.14000638797, 9447.14000638797, 9447.14000638797, 8389.126506254355, 7030.406603804736, 7030.406603804736, 6934.802441748263, 6698.836699170915, 6504.496896782162, 8057.980553940266, 8905.78731901098, 8890.553464881285, 8890.553464881285, 8890.553464881285, 8890.553464881285, 8890.553464881285, 8890.553464881285, 5016.026072326884, 1924.5733609073948, 1924.5733609073948, 1924.5733609073948, 10042.6106559624, 10042.6106559624, 10042.6106559624, 10042.6106559624, 10042.6106559624, 10042.6106559624, 10042.6106559624, 10042.6106559624, 10042.6106559624, 10042.6106559624, 9635.366530952542, 9447.14000638797, 9447.14000638797, 9439.259943271984, 9282.058408603885, 9086.669122123427, 8462.085228850097, 6278.619663979846, 6290.54274774494, 5861.573296430682, 5856.714748930233, 5856.714748930233, 7983.874301840542, 8890.553464881285, 8890.553464881285, 8890.553464881285, 8890.553464881285, 8890.553464881285, 8890.553464881285, 8890.553464881285, 6149.397080163137, 1924.5733609073948, 1924.5733609073948, 1924.5733609073948, 10042.6106559624, 10042.6106559624, 10042.6106559624, 10042.6106559624, 10042.6106559624, 10042.6106559624, 10042.6106559624, 10042.6106559624, 10042.221205121201, 9674.000630519067, 9146.1429695719, 8909.69609348419, 8699.43203558751, 8489.53700324056, 8429.796499250993, 8429.796499250993, 8426.462711880715, 6079.056457146392, 5856.714748930233, 5856.714748930233, 5856.714748930233, 5856.714748930233, 8153.378116843977, 8890.553464881285, 8890.553464881285, 8890.553464881285, 8890.553464881285, 8890.553464881285, 8890.553464881285, 8890.553464881285, 7318.679798149098, 1924.5733609073948, 1924.5733609073948, 1924.5733609073948, 10042.6106559624, 10042.6106559624, 10042.6106559624, 10042.6106559624, 9840.34782819588, 9166.931659567857, 8436.78863281899, 7711.286959650375, 7010.779808531392, 6683.083962240825, 7906.276619909562, 8429.796499250993, 8429.796499250993, 8429.796499250993, 8429.796499250993, 8429.796499250993, 8429.796499250993, 6631.758668363757, 5856.714748930233, 5856.714748930233, 5856.714748930233, 5856.714748930233, 8334.831596062715, 8890.553464881285, 8890.553464881285, 8890.553464881285, 8890.553464881285, 8890.553464881285, 8890.553464881285, 8890.553464881285, 8481.659620429158, 1942.77470282282, 1924.5733609073948, 1924.5733609073948, 9241.225036394695, 8507.311201090455, 7815.507277871554, 7156.320473862241, 6699.069288299243, 6683.083962240825, 6683.083962240825, 6683.083962240825, 6683.083962240825, 6683.083962240825, 7477.588563889641, 8429.796499250993, 8429.796499250993, 8429.796499250993, 8429.796499250993, 8429.796499250993, 8429.796499250993, 7193.975368211782, 5856.714748930233, 5856.714748930233, 5856.714748930233, 5856.714748930233, 8573.20682656158, 8890.553464881285, 8890.553464881285, 8890.553464881285, 8890.553464881285, 8890.553464881285, 8890.553464881285, 8890.553464881285, 8890.553464881285, 2737.344522616794, 1924.5733609073948, 1924.5733609073948, 6702.106076490854, 6683.083962240825, 6683.083962240825, 6683.083962240825, 6683.083962240825, 6683.083962240825, 6683.083962240825, 6683.083962240825, 6683.083962240825, 6683.083962240825, 6824.563084376021, 8344.060646093016, 8429.796499250993, 8429.796499250993, 8429.796499250993, 8429.796499250993, 8429.796499250993, 7864.465439945209, 5861.305602099721, 5856.714748930233, 5856.714748930233, 5856.714748930233, 8667.710535647931, 8890.553464881285, 8890.553464881285, 8890.553464881285, 8890.553464881285, 8890.553464881285, 8890.553464881285, 8890.553464881285, 8890.553464881285, 3942.289338295572, 1924.5733609073948, 1924.5733609073948, 7253.369594237583, 6683.083962240825, 6683.083962240825, 6683.083962240825, 6683.083962240825, 6683.083962240825, 6683.083962240825, 6683.083962240825, 6683.083962240825, 6683.083962240825, 6683.083962240825, 7541.527004999566, 8429.796499250993, 8429.796499250993, 8429.796499250993, 8429.796499250993, 8429.796499250993, 8429.796499250993, 6617.068023100365, 5856.714748930233, 5856.714748930233, 5856.714748930233, 8565.184471756056, 8890.553464881285, 8890.553464881285, 8890.553464881285, 8890.553464881285, 8890.553464881285, 8890.553464881285, 8890.553464881285, 8890.553464881285, 5048.216489674215, 1924.5733609073948, 1924.5733609073948, 8079.808118371773, 6683.083962240825, 6683.083962240825, 6683.083962240825, 6683.083962240825, 6683.083962240825, 6683.083962240825, 6683.083962240825, 6683.083962240825, 6683.083962240825, 6683.083962240825, 6712.278245835516, 7997.5949116794645, 8429.796499250993, 8429.796499250993, 8429.796499250993, 8429.796499250993, 8429.796499250993, 7941.4205369078845, 5874.322222049557, 5856.714748930233, 5856.714748930233, 8206.933314437852, 8890.553464881285, 8890.553464881285, 8890.553464881285, 8890.553464881285, 8890.553464881285, 8890.553464881285, 8890.553464881285, 8890.553464881285, 6074.585350868437, 1924.5733609073948, 1924.5733609073948, 8983.774567487617, 6683.083962240825, 6683.083962240825, 6683.083962240825, 6683.083962240825, 6683.083962240825, 6683.083962240825, 6683.083962240825, 6683.083962240825, 6683.083962240825, 6683.083962240825, 6683.083962240825, 6755.02265242976, 7903.876652746761, 8429.796499250993, 8429.796499250993, 8429.796499250993, 8429.796499250993, 8429.796499250993, 6806.3076278449, 5856.714748930233, 5856.714748930233, 7021.4802298017175, 8873.897885325701, 8890.553464881285, 8890.553464881285, 8890.553464881285, 8890.553464881285, 8890.553464881285, 8890.553464881285, 8890.553464881285, 7204.976147152002, 1616.9077716500344, 1924.5733609073948, 9860.843265299227, 6761.754859685753, 6683.083962240825, 6683.083962240825, 6683.083962240825, 6683.083962240825, 6683.083962240825, 6683.083962240825, 6683.083962240825, 6683.083962240825, 6683.083962240825, 6683.083962240825, 6683.083962240825, 6765.244434286661, 8038.822695648214, 8423.792624199099, 8429.796499250993, 8429.796499250993, 8429.796499250993, 8130.60270044252, 5931.159736721492, 5856.714748930233, 5856.714748930233, 6741.048926132708, 8643.371598220574, 8890.553464881285, 8890.553464881285, 8890.553464881285, 8890.553464881285, 8890.553464881285, 8890.553464881285, 8326.519689318311, 465.3406647614247, 813.3493686293957, 10030.658980101864, 7355.266158330422, 6683.083962240825, 6683.083962240825, 6683.083962240825, 6683.083962240825, 6683.083962240825, 6683.083962240825, 6683.083962240825, 6683.083962240825, 6683.083962240825, 6683.083962240825, 6683.083962240825, 6683.083962240825, 6695.51567187842, 7748.088936608046, 8429.796499250993, 8429.796499250993, 8429.796499250993, 8429.796499250993, 6950.526700893464, 5856.714748930233, 6030.613866996242, 7223.156990016414, 8619.050316514667, 8890.553464881285, 8890.553464881285, 8890.553464881285, 8890.553464881285, 8890.553464881285, 8890.553464881285, 8890.553464881285, 1024.9753678001446, 86.62388865040579, 10030.658980101864, 8190.68967372894, 6683.083962240825, 6683.083962240825, 6683.083962240825, 6683.083962240825, 6683.083962240825, 6683.083962240825, 6683.083962240825, 6683.083962240825, 6683.083962240825, 6683.083962240825, 6683.083962240825, 6683.083962240825, 6683.083962240825, 6683.113849599477, 7359.235197965364, 8207.236554534102, 7966.075196302937, 7738.873318289223, 7332.148940925321, 7863.876387549257, 8779.591470618136, 8890.553464881285, 8890.553464881285, 8890.553464881285, 8890.553464881285, 8890.553464881285, 8890.553464881285, 8890.553464881285, 8890.553464881285, 8890.553464881285, 2506.5934718995395, 86.62388865040579, 10030.658980101864, 9452.586936953303, 6695.189603459248, 6683.083962240825, 6683.083962240825, 6683.083962240825, 6683.083962240825, 6683.083962240825, 6683.083962240825, 6683.083962240825, 6683.083962240825, 6683.083962240825, 6683.083962240825, 6683.083962240825, 6683.083962240825, 6683.083962240825, 6683.083962240825, 6683.083962240825, 6683.083962240825, 6683.083962240825, 6683.083962240825, 7849.674326977098, 8890.553464881285, 8890.553464881285, 8890.553464881285, 8890.553464881285, 8890.553464881285, 8890.553464881285, 8890.553464881285, 8890.553464881285, 8890.553464881285, 8890.553464881285, 3988.211575999257, 86.62388865040579, 10030.658980101864, 10010.244367871446, 7663.323097644073, 6683.083962240825, 6683.083962240825, 6683.083962240825, 6683.083962240825, 6683.083962240825, 6683.083962240825, 6683.083962240825, 6683.083962240825, 6683.083962240825, 6683.083962240825, 6683.083962240825, 6683.083962240825, 6683.083962240825, 6683.083962240825, 6683.083962240825, 6683.083962240825, 6683.083962240825, 6683.083962240825, 6801.336791937634, 8688.75565298738, 8890.553464881285, 8890.553464881285, 8890.553464881285, 8890.553464881285, 8890.553464881285, 8890.553464881285, 8890.553464881285, 8890.553464881285, 8890.553464881285, 5517.980623198247, 86.62388865040579, 9326.096484460386, 8916.842180062875, 8524.050352084134, 6738.453676899621, 6683.083962240825, 6683.083962240825, 6683.083962240825, 6683.083962240825, 6683.083962240825, 6683.083962240825, 6683.083962240825, 6683.083962240825, 6683.083962240825, 6683.083962240825, 6683.083962240825, 6683.083962240825, 6683.083962240825, 6683.083962240825, 6683.083962240825, 6683.083962240825, 6683.083962240825, 6683.083962240825, 7614.776852831756, 8890.553464881285, 8890.553464881285, 8890.553464881285, 8890.553464881285, 8890.553464881285, 8890.553464881285, 8890.553464881285, 8890.553464881285, 8890.553464881285, 7132.49343284811, 86.62388865040579, 8814.077028992178, 8814.077028992178, 8814.077028992178, 7643.014601001322, 6683.083962240825, 6683.083962240825, 6683.083962240825, 6683.083962240825, 6683.083962240825, 6683.083962240825, 6683.083962240825, 6683.083962240825, 6683.083962240825, 6683.083962240825, 6683.083962240825, 6683.083962240825, 6683.083962240825, 6683.083962240825, 6683.083962240825, 6683.083962240825, 6683.083962240825, 6683.083962240825, 6739.541765302727, 8610.556223752641, 8890.553464881285, 8890.553464881285, 8890.553464881285, 8890.553464881285, 8890.553464881285, 8890.553464881285, 8890.553464881285, 8890.553464881285, 8548.013286053845, 163.3366164076292, 8814.077028992178, 8814.077028992178, 8814.077028992178, 8675.49630504501, 6842.978198740904, 6683.083962240825, 6683.083962240825, 6817.610094254001, 6808.548199933592, 6772.683922875322, 6732.467526783258, 6684.160893479929, 6683.083962240825, 6683.083962240825, 6683.083962240825, 6683.083962240825, 6683.083962240825, 6683.083962240825, 6683.083962240825, 6683.083962240825, 6683.083962240825, 6683.083962240825, 6683.083962240825, 7465.83129347285, 8890.553464881285, 8890.553464881285, 8890.553464881285, 8890.553464881285, 8890.553464881285, 8890.553464881285, 8890.553464881285, 8890.553464881285, 8858.150812781263, 4745.348858447797, 8814.077028992178, 8814.077028992178, 8814.077028992178, 8814.077028992178, 7896.757750543609, 6683.083962240825, 6832.654981669058, 7128.688606808679, 7129.108878567159, 7129.108878567159, 7129.108878567159, 7119.627321153349, 7100.223840061946, 7065.5018522390765, 7030.723296343045, 6995.790330091078, 6960.780544214121, 6916.048832213884, 4506.6053181408915, 4265.279046020238, 4799.1798788386795, 5322.920008011927, 5825.925684437466, 6464.2123885361625, 8688.612920375885, 8890.553464881285, 8890.553464881285, 8890.553464881285, 8890.553464881285, 8890.553464881285, 8890.553464881285, 8823.55926814579, 7833.599210589358, 7241.783887665462, 8814.077028992178, 8814.077028992178, 8814.077028992178, 8814.077028992178, 8770.66732646897, 7054.964567690941, 7100.786618560634, 7129.108878567159, 7129.108878567159, 7129.108878567159, 7129.108878567159, 7129.108878567159, 7129.108878567159, 7129.108878567159, 7129.108878567159, 7129.108878567159, 7129.108878567159, 7129.108878567159, 2916.418005594628, 242.95981176512694, 242.95981176512694, 242.95981176512694, 242.95981176512694, 3914.7843669408458, 7574.290818197456, 7647.300949876462, 7766.533833796672, 7888.790117490551, 8006.366955762278, 8121.013359908482, 8245.217088560132, 7843.369766385537, 7520.123560923858, 7520.123560923858 ];
