m = 34;
n = 35;
street_space = [| 0.0, 0.0, 4305.446846276522, 3197.7636869326234, 2127.4603373259306, 1995.1344235092402, 84.94666946679354, 2384.2484980225563, 4113.314626350999, 3636.670560017228, 1190.397972997278, 2575.7771758437157, 1287.072793969186, 5607.288790689316, 2119.856364428997, 4441.195499435067, 4366.974924199283, 3595.112097684294, 2976.228882553056, 1025.326860108733, 3378.11030009808, 1634.9973760638386, 873.5040641129017, 0.0, 0.0, 0.0, 0.0, 0.0, 0.0, 0.0, 4855.3653629701585, 244.53462312743068, 1585.5513309314847, 611.5005220621824, 2088.9019617028534
 |2944.0164300184697, 507.25414104759693, 3779.311750076711, 2523.680958159268, 4612.343878269196, 4880.832604169846, 2799.695729427971, 3760.317047073506, 1566.671661845874, 45.60257460922003, 533.950710915029, 4300.360184725374, 2325.1388640161604, 3027.5368735096417, 2840.025414995849, 5053.185253039002, 2021.7713957354426, 345.48894065618515, 923.6646596491337, 7076.130416214466, 2136.086374163162, 4461.820480436087, 4262.938419260085, 2564.7475818600506, 1702.1768077667803, 1524.8354402035475, 612.4550311863422, 0.0, 0.0, 1386.9492925405502, 4777.295025616884, 2777.9278832040727, 3961.2649716362357, 2730.267874099314, 1548.687121808529
 |1525.867388188839, 3466.1110299006104, 3646.012296818197, 4327.230264481856, 5423.553615689278, 3695.8169124126434, 1102.9898759573698, 0.0, 837.9137703478336, 4826.554889559746, 5919.006785556674, 2856.101215781644, 4160.3436924517155, 1241.7860765457153, 0.0, 3198.4825669676065, 926.594131320715, 3010.476169024594, 6114.673104442656, 3846.2607272565365, 3608.095024037175, 215.49698674306273, 1820.5033532381058, 4176.688506893814, 5410.222724691033, 2304.8654507510364, 1262.8727438524365, 1291.5196067625657, 1182.5994120240211, 2610.230897165835, 766.2052280381322, 0.0, 293.31020264327526, 189.42826471477747, 0.0
 |2560.9939155261964, 5509.778041526675, 832.1206505261362, 1000.4146098694764, 3459.46731569618, 1665.3954245448112, 5685.785284653306, 3492.1479429006577, 5899.208420157433, 5706.285950392485, 146.77444222569466, 7.6692103343084455, 2619.24286955595, 6279.605265140533, 3027.7663543969393, 4010.4806745946407, 3523.379291214049, 5541.1249445304275, 1161.7249300805852, 1636.9216145509854, 2585.7244158685207, 136.88018062710762, 340.6913865094539, 145.38030604668893, 3814.742758512497, 5667.138559676707, 2069.433494180441, 0.0, 717.1606025379151, 3488.7093320563436, 0.0, 0.0, 0.0, 0.0, 0.0
 |1921.0556018352509, 3519.6811213195324, 3546.9562137946486, 3858.719772630371, 4877.957233107649, 2306.904095080681, 2820.0888580111787, 5040.539162615314, 2721.918485302478, 1349.838052034378, 4184.443083643913, 4141.686374019831, 3207.192678555846, 2826.3913219571114, 2681.5593699663877, 3649.216045293957, 3847.0923169851303, 2721.0068125166, 2733.6519796550274, 4661.88572306931, 495.0741835460067, 0.0, 0.0, 0.0, 1450.843463793397, 1537.4110782508506, 6332.4664043188095, 5316.346206981689, 2551.1329070329666, 1331.6422920748591, 0.0, 0.0, 0.0, 0.0, 1258.0179945691489
 |5002.081890493631, 634.1940659722313, 0.0, 3275.0607280135155, 331.7871994334273, 5195.328850213438, 1725.856181836687, 2050.428890411742, 2104.5148184839636, 1058.1990417744964, 627.1249271929264, 4146.211525529623, 2190.9260928599397, 1653.721723522991, 0.0, 2817.4886718280613, 1424.7232301654294, 2390.965026266873, 1537.5244786590338, 2147.7770940931514, 0.0, 0.0, 0.0, 1632.0951130259782, 4500.948489166796, 936.8545175716281, 4101.376058012247, 2688.5326575264335, 1511.3925547730178, 4459.536957729608, 898.3417702913284, 0.0, 0.0, 0.0, 1122.9584015011787
 |3876.908707290888, 2861.6794524490833, 3457.2074934765697, 6325.81597495079, 5274.612700695638, 4546.526323725469, 2519.7459268271923, 2033.4572688862681, 0.0, 2068.5414536222816, 1306.3998278155923, 1343.52460283041, 449.6875788271427, 3312.154810903594, 3555.136290980503, 220.23798055946827, 4245.746643036604, 3192.5730193406343, 4286.850256092846, 3708.0235751494765, 539.7434319108725, 0.0, 50.86298374272883, 2393.2395812999457, 351.89346940629184, 3591.498807504773, 54.53760606609285, 1821.796633824706, 1075.879854157567, 613.7683568298817, 4275.4767643511295, 4492.138171695173, 869.7038965281099, 3882.558067366481, 3803.583931595087
 |2939.3930300474167, 0.0, 1581.0930768549442, 2725.237134554889, 3059.26897162199, 3810.7921548485756, 2464.4706345275044, 3535.800961896777, 2088.6805962771177, 3769.0779284611344, 446.09055272489786, 1921.7155376523733, 283.61498591303825, 3597.2269468158484, 1295.8867968805134, 3415.897112928331, 4377.168267279863, 155.20628789253533, 1207.4890886098146, 3440.209945142269, 3983.7176091074944, 4597.029024716467, 2828.4476166199893, 1942.596647258848, 2082.374322352931, 3205.220681451261, 320.22811134625226, 1819.9050895497203, 0.0, 0.0, 0.0, 451.67757515609264, 6068.273862868547, 348.5426540672779, 3498.8040137141943
 |1415.5280572343618, 4446.521029517055, 2913.5155054330826, 2117.9795136526227, 1893.6202881336212, 4528.7403618097305, 5872.818342119455, 5786.2354048117995, 4877.4732711315155, 2459.16026571393, 473.5673578437418, 1976.06018300727, 1030.1778323482722, 1848.7243911325932, 1961.427315339446, 726.68183337152, 1225.2609000504017, 2653.7877227663994, 2361.813128613867, 1433.9977030158043, 0.0, 1078.3134816214442, 3724.405137758702, 3870.7270616963506, 4324.790299169719, 1243.2477181721479, 2358.968698279001, 0.6247401833534241, 0.0, 0.0, 146.71430983394384, 1202.7405174076557, 4381.059718042612, 0.0, 948.5059263259172
 |3254.655545771122, 1939.5961878225207, 139.13795854896307, 778.4533488750458, 154.6052827090025, 3738.4950744509697, 4210.359113853425, 3451.8126638545364, 4431.468997195363, 2377.9247018489987, 409.70060394331813, 10.710684262216091, 2085.676190569997, 3100.216385403648, 2321.71338173002, 997.3008507695049, 1748.590383760631, 998.0474340394139, 2124.672766238451, 667.9816362634301, 934.2237678456586, 1918.1761557534337, 2888.602127701044, 107.76960395649076, 1309.7223943397403, 2876.9451045691967, 3962.6707054525614, 3324.3937427066267, 1104.2469676434994, 0.0, 1451.2615343369544, 1267.2005167640746, 4583.417459700257, 1737.3746958263218, 850.4808403942734
 |1892.3053345885128, 2208.858661595732, 655.8638496249914, 21.459642610512674, 4446.101283729076, 3397.1484728259966, 3411.1170547312213, 1358.7472057938576, 3023.566276565194, 3127.663020528853, 2888.0202022977173, 4064.585368268192, 5512.627909786999, 3722.944715861231, 3418.745624113828, 2385.351656321436, 4042.2342461645603, 1493.1386680863798, 3624.1473785564303, 4530.925717126578, 4172.708877637982, 4387.446867100894, 1092.6381848528981, 1048.0290259122849, 100.53099430655129, 1360.858820527792, 1128.9487074017525, 117.88580921292305, 3818.697096079588, 4343.546392481774, 4481.661851771176, 600.9095256328583, 3247.4584199786186, 3636.574125148356, 2643.4757968112826
 |5587.5520466044545, 86.93105270341039, 2945.14204467088, 2243.4521871879697, 1962.6744959652424, 4661.535956889391, 989.328524036333, 3826.5526944904414, 5792.211963772774, 5613.916690968908, 1685.0908337160945, 0.0, 3482.951408267021, 1971.8888686448336, 2315.787906050682, 2605.214293040335, 2559.791533652693, 1133.2705414788797, 3833.6357447057962, 1423.880615806207, 2724.2928455024958, 2941.36810195446, 1765.6639979369938, 1305.5089200250804, 1381.2517359480262, 11.829453391954303, 934.2898101732135, 497.1615292355418, 405.0298941396177, 132.96078623086214, 1845.1804479658604, 3725.9297223985195, 565.0887457747012, 3562.618278954178, 2817.274024726823
 |5180.596152853221, 2386.253631927073, 4589.064048638102, 4644.864650040865, 2434.403066666797, 1850.425902955234, 975.0295506045222, 1253.8239934531157, 545.7003895640373, 140.98566152900457, 2629.765750579536, 2140.7330973725766, 3838.2346138060093, 2489.9678280875087, 1367.9111601673067, 269.11859323084354, 2107.8012353107333, 1701.4225788339972, 3342.318653896451, 1970.0922517180443, 1528.579571671784, 1052.4757620655, 979.767719047144, 2733.087269084528, 2317.8193491250277, 1336.2999080484733, 2157.1247340738773, 2119.68170588091, 1195.7571808006614, 1740.2872663885355, 1610.596454829909, 1264.3908638358116, 2463.5856007784605, 3797.3122234502807, 2853.286695063114
 |6557.226362854242, 2097.190727024339, 2300.8649748265743, 1383.0275451499037, 1180.2062229402363, 1151.9029539227486, 1030.2672283649445, 2092.2146512009203, 1785.0833619609475, 2214.6761236563325, 2509.2658806964755, 3547.2163325101137, 3038.0429876819253, 2099.5817571561784, 1210.459037820343, 1216.6025292612612, 2054.880976960063, 1952.121435083449, 2426.860383734107, 1649.6314239688218, 1455.892142161727, 4086.033075538464, 1873.3623870909214, 649.4688822813332, 1751.3589491918683, 616.3194762170315, 1074.88131146878, 459.59173540584743, 961.5669377790764, 990.1603348767385, 2063.9966491935775, 95.26653593033552, 1554.0500110164285, 3719.072019457817, 1774.2114667259157
 |4682.233357638121, 2767.4478281047195, 2173.789389103651, 2666.610349067487, 1244.0870881341398, 611.1605141833425, 454.8348569665104, 297.00087333098054, 1323.4893902242184, 2270.521592981182, 517.5208991207182, 1850.2937413305044, 2886.438298150897, 1401.8706378377974, 759.5218346044421, 1793.69412830472, 2604.859273903072, 3074.5448009911925, 1352.882789708674, 1460.0472494717687, 1938.6392171005718, 2691.2627433538437, 1431.877942547202, 1622.6518483385444, 1206.489334691316, 1901.504519872833, 689.5816505132243, 2663.802500538528, 351.7415657490492, 0.0, 2464.532715007663, 2038.531054854393, 3062.08969065547, 4256.528125911951, 59.16724015772343
 |1176.4164928495884, 5778.064395710826, 2433.9744963869452, 1801.4638869911432, 1739.188585869968, 915.2341701835394, 1557.1651354804635, 1526.0641131396405, 1897.9456143206917, 1598.2946413718164, 1958.9513828456402, 5776.1843431741, 3083.8260006830096, 3773.3567702658474, 2123.5831079948694, 2754.593750375323, 1173.475464089308, 2902.1157017424703, 965.1899732649326, 1475.7685293704271, 2657.9357162807137, 2124.9685928765684, 1444.0401337902877, 950.862550586462, 1825.33601927571, 911.7370302826166, 1252.460057117045, 1695.3321964405477, 2093.846746623516, 2324.7267828956246, 2542.6270226687193, 0.0, 0.0, 4213.478196486831, 0.0
 |2049.3004143097205, 6326.377655044198, 1040.4541119635105, 0.0, 894.407977167517, 0.0, 0.0, 0.0, 240.68341857939959, 2022.7085558772087, 5047.537671966478, 1783.7232781760395, 118.05130805447698, 1594.2040941435844, 4400.170679703355, 3853.9824202619493, 2341.444186421111, 2121.0172752868384, 1335.5157127790153, 1455.0896885432303, 1694.8771000131965, 1266.24382609874, 2625.2380042595323, 1177.2176360338926, 2781.4167914688587, 0.0, 34.54655257239938, 1679.7132806181908, 1497.7680604606867, 1217.9443132132292, 1356.7439796328545, 2101.533706629649, 1909.7073744926602, 4551.967397421598, 2982.8395552411675
 |1316.9322214275599, 3871.7338797599077, 2068.5871852859855, 1475.438455361873, 1953.5366256646812, 106.78255178034306, 0.0, 326.35002648690715, 763.3296506642364, 0.0, 3969.718319046311, 1795.5489631220698, 627.4118317193352, 2105.975712513551, 1016.4489919183834, 1580.741403429769, 0.0, 0.0, 126.10988751985133, 3539.6094409562647, 3887.3769879192114, 2145.9569610673934, 1086.7547770952806, 1607.638722231146, 1523.4754584282637, 1258.8253580098972, 1386.7454077461734, 2235.1659518182278, 1014.4709377530962, 1191.430328771472, 661.0781276896596, 708.7274179495871, 769.7567491158843, 3913.428334183991, 953.4069799184799
 |2852.777729842812, 5478.723701916635, 789.3223880752921, 0.0, 69.7238517999649, 1248.0128188878298, 2116.414398642257, 1216.152394860983, 2202.267499946058, 85.97152809426188, 4549.154529675841, 541.1801452338696, 1115.5787942558527, 444.51337766461074, 252.94953499548137, 2819.8683886583894, 2078.3282548638526, 70.49401820637286, 135.80680184811354, 2579.889703080058, 2563.534525603056, 3020.514040865004, 1598.7886619493365, 1792.4250877909362, 1104.2564308773726, 1643.8110933983698, 1245.0036712894216, 4987.693243741989, 96.95279133180156, 1587.570336729288, 1735.6042439918965, 1565.7185179926455, 1565.442774483934, 2816.2761571109295, 2229.210592551157
 |408.83499436825514, 2021.032511368394, 3116.5552710816264, 0.0, 0.0, 49.10807097516954, 1367.4204379096627, 0.0, 444.38058546185493, 3015.807604789734, 2216.3723009079695, 2034.278302334249, 1523.016329150647, 910.5953493323177, 1825.3707742431434, 3647.606659513898, 2146.5234363730997, 1828.8878945559263, 1027.804289673455, 1560.5042640401516, 1763.87360965088, 2129.14576068148, 2056.420326076448, 1063.6189635638148, 2208.9901112737134, 2128.011348458007, 324.6609804034233, 4247.735646221787, 1436.5509001179598, 775.843739320524, 1120.5310538746417, 788.9667390845716, 1463.5076368525624, 4313.479799240828, 0.0
 |1964.6414508409798, 1157.0596953537315, 5254.239052399993, 0.0, 0.0, 1386.7728290483356, 1406.6895977519453, 951.0063904225826, 0.0, 1129.2659324854612, 826.2094156742096, 1802.2910799756646, 1136.10234394297, 1707.6984750442207, 1869.8308541737497, 2976.772404193878, 2070.8935532718897, 1205.6802263567224, 2230.328614532016, 1706.004006460309, 835.9231890663505, 1838.913503833115, 143.69080560654402, 995.1730243079364, 1714.9244294948876, 613.2338297441602, 1860.2435368392617, 3760.855035454035, 1007.9110263027251, 1031.9238609559834, 135.15490234596655, 697.8737467415631, 1217.1315737590194, 4029.0341212898493, 0.0
 |4743.560673445463, 1701.5080573726445, 6222.511215619743, 2238.1156416497834, 1605.6117759865883, 1816.8599203154445, 864.8559785187244, 299.26414228603244, 923.3560402425937, 1302.3199917897582, 1763.512620841153, 219.78042950108647, 2040.042029619217, 2269.069594230503, 1926.9307022318244, 920.3383603738621, 1234.0723696351051, 2166.1198852863163, 1841.616067994386, 262.8047682829201, 43.80937456712127, 2026.8919136077166, 1032.1177521133795, 639.9132939726114, 397.4463815446943, 708.5091247861274, 1404.8859287071973, 1928.0322109423578, 1350.1447274908423, 449.574644446373, 957.6519763860852, 1363.4577736519277, 515.8418189371005, 3940.1044362187386, 220.08400667458773
 |2799.4363563656807, 490.43588506802917, 4208.164550369605, 1088.2630234826356, 2416.5419699810445, 99.1850517950952, 1034.000359442085, 0.0, 770.7139502465725, 886.271491907537, 1147.824834652245, 1518.9274517148733, 114.15649124304764, 1294.0354126449674, 3537.2926468774676, 1098.5853938627988, 2874.469327479601, 2610.537862598896, 1443.6173593625426, 2550.7868741750717, 2336.9874619990587, 3132.161064684391, 1838.400989253074, 2850.3718703612685, 3441.5604290887713, 1086.3702819296159, 1263.5779427420348, 538.8109850138426, 0.0, 1330.3929040282965, 1956.7607381679118, 2122.137331493199, 818.0872758813202, 4171.333020284772, 1126.337648153305
 |3976.499677594751, 2679.027459194651, 3742.957530643791, 318.4476014524698, 1237.2663152455352, 66.64952423330396, 931.923907738179, 0.0, 925.5019166246057, 880.0835543572903, 2203.2615541704, 2338.5412025377154, 2304.971378341317, 1053.4379155524075, 2041.4716262668371, 2276.4109728448093, 1457.4192259535193, 1875.936769478023, 1627.2336445845722, 2585.943707164377, 1429.3742797309533, 1806.8255217820406, 1406.060619868338, 1977.254248701036, 240.69758546352386, 2117.8969218358397, 1717.3340509533882, 981.082562789321, 515.8568473495543, 429.33435586094856, 0.0, 1664.8632384033408, 2378.7923325896263, 2631.392431214452, 1363.954016841948
 |2500.2199130281806, 1260.5623654145747, 2512.672541499138, 6106.1070403158665, 3982.5173692321405, 2300.6436763629317, 1650.9716294053942, 2819.008257828653, 2038.2988840155303, 1690.33832321316, 3106.9577346835285, 1824.4616592749953, 1420.9865048527718, 1402.176846768707, 2401.5991957597435, 3214.0008358731866, 1154.2936190664768, 2046.0672040730715, 2354.2381802950986, 490.64564123004675, 980.7053706273437, 205.37900975719094, 563.6440673284233, 255.78524796664715, 1148.6942646726966, 2132.647591665387, 2162.9798472374678, 387.55707663297653, 1553.9287232756615, 232.18959798663855, 0.0, 669.5077829887159, 35.41523606143892, 1206.2073593437672, 1966.1759920138866
 |1424.2270521372557, 2022.9783015400171, 0.0, 0.030052436399273574, 2223.361244380474, 4937.284748189151, 2349.7471508085728, 2398.765131652355, 0.0, 364.7058581635356, 2018.1203193864785, 1673.9974073432386, 1159.9381832182407, 0.0, 1472.0313220955431, 1478.485157057643, 0.0, 1381.3713383506984, 1724.7804569974542, 0.0, 0.0, 292.2271141111851, 1369.4406111165881, 102.50049702264369, 1195.0990809630603, 1197.880817282945, 1446.2893379032612, 231.35395155847073, 0.0, 1419.6109377592802, 884.2120899101719, 811.2795832231641, 489.4503861181438, 1373.9183265939355, 3083.7878664173186
 |2725.955726099666, 2385.96732416749, 0.0, 0.0, 0.0, 703.7110817059875, 2709.952007582411, 5782.428968705237, 1715.0414383113384, 299.80608858168125, 0.0, 771.1974521391094, 3482.0612853765488, 2261.1235517300665, 5800.742910076864, 1260.656080991961, 795.3153019845486, 976.9388295784593, 93.1234442666173, 0.0, 901.2289665155113, 2048.9276883006096, 1212.9506613463163, 1698.676365392981, 2403.6772944927216, 178.76967404410243, 1.0488185323774815, 2102.023895211518, 305.98517449758947, 697.6827799342573, 1487.8704901784658, 1789.368312811479, 1441.4170081922784, 2917.0722365938127, 4331.130802795291
 |2465.091506670229, 2963.5451169312, 0.0, 0.0, 0.0, 100.8624102063477, 1467.8900338932872, 1376.5758723579347, 4027.832881450653, 4899.9351719506085, 2212.737348334864, 1143.6739743724465, 989.7604338824749, 0.0, 2097.362317547202, 1969.69560803473, 1270.2565823802724, 1602.2909577190876, 15.93333587050438, 1665.7225510962307, 3496.661235205829, 1193.846344070509, 938.6655349228531, 2338.9339738488197, 1513.1588145270944, 1279.0057734809816, 601.4188799904659, 728.6271064057946, 1649.8516774699092, 46.115891590714455, 744.095938116312, 0.0, 93.69005833566189, 356.590452298522, 3880.7259437292814
 |246.97119849547744, 0.0, 0.0, 0.0, 644.3934092028067, 2240.323956643231, 8.019500127062201, 984.8123245574534, 1231.091235909611, 1369.2115778233856, 4769.127307670191, 5092.049196714535, 3074.5170788802207, 149.60188817884773, 1784.7687245756388, 1769.089871890843, 748.3071771003306, 938.7820440791547, 3811.431474555284, 3362.367947191, 2750.8524376153946, 1481.4950878471136, 921.9041219726205, 1875.771118849516, 801.629123212304, 334.8195942938328, 2161.166440758854, 0.0, 1523.5049122422934, 1578.049442064017, 1297.8616690956987, 2880.5832499600947, 4074.500933755189, 2882.11439018324, 6657.676150947809
 |0.0, 0.0, 0.0, 255.9300243947655, 1627.5002066269517, 0.0, 230.43054252304137, 1096.4808177854866, 1893.9743614979088, 807.042593292892, 1638.2221908569336, 2305.1031920798123, 5271.734232008457, 7763.539774090052, 5472.169881142676, 3002.7596675837412, 2317.041520136874, 1159.5240414495347, 2190.8499771878123, 1867.400653468445, 2473.943827390671, 1550.740157045424, 0.0, 2224.560824483633, 818.013830262702, 1941.4991869814694, 661.8209698945284, 1234.5832332540303, 379.4915575888008, 3942.390268832445, 2531.211860835552, 1301.3795493841171, 129.97223548591137, 1711.2433806583285, 4273.960424184799
 |0.0, 0.0, 229.16027562879026, 1036.1582000446506, 763.7359517798759, 1639.7582316929474, 1321.8774648495018, 2394.1596424477175, 2918.3074716217816, 2781.199020832777, 428.11765836179256, 1080.1026956057176, 50.235896311700344, 1817.990012139082, 4251.663034796715, 4616.901398539543, 4987.150903761387, 5142.9092125967145, 4141.236469309777, 4425.8416755869985, 2389.1485466912854, 4094.058562025428, 1793.4967150120065, 3037.458767607808, 1545.7605561353266, 545.7836931608617, 2273.681846305728, 1897.8306188955903, 1164.5728169409558, 255.84778072685003, 1733.307821309194, 0.0, 0.0, 1073.1186539158225, 4195.798415094614
 |0.0, 0.0, 872.3122428432107, 60.28035522901337, 0.07401718874461949, 0.0, 1364.1191662037745, 1662.2312120967545, 726.6344371107407, 581.3821627851576, 1683.6671373452991, 1065.0045591527596, 1946.6016533966176, 3056.795409232378, 1314.1602851264179, 0.0, 0.0, 0.0, 149.18075382709503, 1468.7722426056862, 3042.1254246234894, 4028.265790425241, 1369.3605238422751, 2838.694902203977, 5111.857912670821, 2752.815657503903, 2017.172414727509, 2.804905042052269, 881.9797910600901, 3031.9490665458143, 1805.0815714206547, 2125.69421300292, 777.910029001534, 1866.8389578796923, 2863.2761473357677
 |0.0, 0.0, 489.02884737960994, 442.88377687335014, 472.58009740989655, 0.0, 1044.7449366324581, 1724.7801698027179, 1336.8561189696193, 449.1635468285531, 1946.2187029775232, 2620.243868308142, 2489.89821138978, 3321.2679176293314, 1048.8867900725454, 1214.2578766215593, 372.2768445890397, 0.0, 0.0, 0.0, 0.0, 0.0, 0.0, 2174.0449659898877, 5136.3386917393655, 1552.205914258957, 3217.5352504253387, 4161.316274015233, 4206.328781932592, 5486.176617473364, 5533.5098118186, 2651.4409929402173, 893.4430329576135, 2634.896550946869, 432.69000937696546
 |0.0, 0.0, 695.4093515947461, 732.6888101892546, 149.6319096647203, 0.0, 888.6619191700593, 174.09168152697384, 732.2092013219371, 1498.1892952099442, 2636.423062760383, 896.6971970889717, 718.1392715200782, 3031.4520803950727, 2593.326273113489, 2452.277475434821, 0.5530308349989355, 0.0, 0.0, 0.0, 0.0, 0.0, 0.0, 1644.2174221351743, 3.0362307634204626, 0.0, 0.0, 0.0, 0.0, 0.0, 168.24283818900585, 1617.2491993904114, 1398.6971226576716, 4902.205149863847, 1026.88963008672
 |];
ext_space = [| 5719.806304959871, 5529.051402206853, 2766.835570948222, 2177.7877877947703, 3135.3928564065136, 2336.156709654102, 2868.9926902008174, 3514.950548278981, 1827.3287864694867, 3497.6371963390866, 2213.2363598557404, 4843.234875168651, 4472.5618633609265, 454.02148883084874, 642.5576416904493, 463.39516223287853, 201.74833176135144, 341.2088830684561, 1160.0719796279445, 4794.130409740144, 2517.460076307079, 702.5546403785227, 125.65378210321069, 11.231808613985777, 0.0, 0.0, 0.0, 0.0, 0.0, 5145.093205961399, 2234.594599360891, 4658.900273561478, 3563.625593815348, 2252.2254199114504, 3887.284199476242
 |2832.324734757959, 5599.385309732612, 3302.402414595661, 3172.414333854864, 2134.051363743826, 605.0315188811786, 2288.1351859594324, 3069.867417107042, 3009.463827982545, 5964.859164820053, 6324.343152059676, 1218.5260321516544, 1659.3188049122691, 1018.5809040202294, 1097.2927222112194, 645.7974909738465, 1679.7431254212456, 2188.37266460713, 2552.15394038707, 59.883740132674575, 307.0683793457982, 931.6969874166307, 258.3412031796938, 2792.867806238268, 2589.5258921579625, 2248.337285087986, 1668.58338421816, 660.673788972199, 324.32790671114344, 4590.839221924078, 1734.3150220520329, 2544.1110370387096, 2564.232518477854, 1640.2271467221435, 525.8697122818558
 |3909.6654575800058, 2197.171349836426, 2542.8473151285084, 1599.5073692063263, 1883.5749176363825, 1318.4464203573077, 2777.9262156840414, 3090.637290353887, 4827.482982750982, 3015.145720291999, 400.56669847942203, 282.89577650314567, 405.22676537265465, 2436.0835978584364, 1294.445517287124, 1785.7361099403352, 3024.8576680110923, 3226.7417382771982, 277.4463946146989, 3054.158361404203, 3806.942956549232, 3273.127479162067, 5647.305087115616, 3129.273553939944, 433.44022608501837, 758.7166877934051, 1993.8844668043885, 4586.61395934294, 6025.75013874484, 3698.193677213043, 695.6669348891592, 4318.51158455218, 2621.397680293456, 171.541328769963, 763.6377863672096
 |3200.951396200806, 2073.844043856061, 4480.939953976499, 4393.859946630895, 1907.4548233826645, 1449.926405504224, 424.07662974856896, 2474.1665075985934, 1022.5733872180587, 857.8487771544605, 3678.7305306745693, 4838.363358546976, 1653.318853574054, 273.94193175103965, 1254.308074254158, 938.6205698648926, 2581.0987068886525, 2069.888869761955, 1739.3292466378225, 3614.2766988074836, 810.1807369720191, 246.22113861562684, 492.6065824450925, 1465.8102633049712, 5502.203738385811, 1448.4523094296183, 4422.533625428099, 7463.102131689899, 2942.522987070198, 5648.785744829336, 5638.800689434167, 2772.768169716699, 321.1904574558139, 183.11981099381228, 39.78546144627035
 |2420.8712113170186, 231.13883432027131, 1589.4177012268483, 1786.76185355708, 2625.4220285096217, 2004.8713668482487, 1260.5300669686103, 721.8094328991428, 570.3217253349721, 2763.5254865524803, 1157.2161264677998, 963.9646207869519, 982.5506916308841, 1557.5816185313236, 813.1130016708337, 1266.502160047885, 1264.906804755124, 2698.961890177046, 2061.5446557682008, 1151.4144959251278, 128.57568856794387, 151.2141535118426, 0.0, 2559.6977938339114, 3717.721706861281, 962.3896485245787, 1246.5304317898117, 2715.046597267501, 2800.2817265280028, 4758.061814935878, 4678.075463965535, 6150.525125101209, 6215.246703223325, 1762.969924947247, 755.5194079333451
 |1523.9371522159, 1267.350111424661, 3863.2241666428745, 3443.601393791663, 2510.241542109995, 883.3601293390982, 338.1088156494705, 305.8731183761838, 5552.378166593088, 358.43867118983707, 1976.75960937943, 1171.1608754731715, 1965.979116919987, 2685.488168611253, 268.82887453376316, 1112.1304218600458, 3098.3991845722194, 993.4563088088748, 909.1872771870981, 1817.6060856584656, 490.7704976722598, 3761.628496736288, 4550.238350376021, 2068.8040919303894, 841.106783423922, 1676.3628745197625, 82.41098234242845, 1757.6154377153143, 125.45712818368338, 2130.9056707900017, 3800.3137522214092, 5955.218637306476, 4236.670969660394, 7956.8172969678935, 5040.800177853711
 |1369.4530884847045, 4034.823786695255, 3287.67027403228, 672.1530353929847, 720.7678875319752, 1034.0933504628783, 2570.3941027465703, 1498.9000441301614, 2960.81205734834, 2046.629548666182, 4733.30094151071, 2508.382025961211, 5451.651775454566, 2720.181310776621, 1621.5643000053242, 5964.358220646398, 1299.8111018174827, 1043.9169931526499, 733.387287504252, 1168.9087303291808, 1028.552893587388, 446.44423465803266, 3064.4278518958017, 1747.4156501163889, 2687.068305454217, 1819.738319011325, 4052.276737688866, 2755.500552162528, 2893.237221563235, 1463.4926889017224, 466.048228750471, 2784.1877136526164, 5672.027928004973, 3034.479479238391, 1783.3522276142612
 |1942.2185524847882, 3371.3528003374813, 3146.683323894271, 512.6820989960106, 458.37535081446185, 2508.7264841272254, 2418.5313291773373, 276.20728329904136, 2254.504238227324, 2378.0689105212896, 4181.340721315704, 1629.6250124811195, 2343.3718866771255, 2730.703435632866, 1476.324865674298, 1897.2780682893163, 1026.440713150869, 3297.2364552149497, 1770.1005079337301, 196.74762402397755, 723.2146399021149, 1888.5295879280357, 1609.1604022561078, 1626.340739009188, 767.8451910857176, 1178.8138732615516, 3380.56227935676, 1823.6681103219744, 4166.52498004667, 1269.7220138907433, 6056.538869097363, 2170.087241703877, 9.515810007753316, 5527.637601904571, 1512.2280300903512
 |3299.2582603626397, 1594.8575019584641, 1396.7125225074633, 911.3015614954552, 1572.8550232946873, 353.8566042536404, 721.3078637588314, 816.0605667334257, 1156.2324105817825, 1981.268226119486, 1773.569071866572, 1973.0892405441264, 270.25134580902295, 390.50120976920425, 1129.3895995059809, 1713.643215738801, 1588.2300928972336, 808.4512966272547, 1625.3001751644952, 502.05804813031864, 0.0, 1420.9597184087572, 1767.531252179742, 1573.8476283105829, 295.931107624202, 1549.1880989007514, 1647.3896146929858, 3376.7441807163705, 3690.2979429636616, 1887.7118452955037, 3924.618036144413, 4698.095641796477, 3272.671655091457, 2345.449362585321, 3471.133981792722
 |572.4691837123537, 2816.2775831119056, 2195.9671471736656, 979.8668138632288, 66.55460776109248, 346.67221417894007, 1174.0268768936717, 3294.047992149737, 1063.6358483963668, 1133.3328385987916, 1855.8227963319514, 1514.6894435835984, 743.3858862610409, 162.6019177284965, 1238.0546048230483, 1574.4856711358943, 2066.066980298964, 938.1670708367601, 964.1779424290871, 606.7496499343397, 637.645967553156, 2167.6166213463293, 2160.8934918520067, 2842.605325147468, 1668.159318113661, 1334.404276357789, 1065.1094290267793, 2028.2911174898036, 3299.0199487875216, 3521.1407305282773, 3307.5261792331003, 3630.9580685385736, 1416.9319695443555, 2316.7203729284593, 2818.104923927225
 |803.3202520741033, 1419.9077443539384, 3047.1734475432445, 5351.899175753002, 1129.1629456318915, 1872.9307493435836, 444.38744359536304, 2659.8584557776703, 1541.5709273535758, 1988.7478748230706, 2518.391618156875, 2044.170409090108, 949.4702652192173, 308.968946256613, 861.4175026946772, 1627.801457147577, 669.6889520580587, 1281.4227688279934, 858.6844883833846, 289.1631559142543, 531.6380075128723, 513.39656286221, 2427.4126128875396, 1633.6201137867974, 2682.9598681951784, 1115.5377763136057, 1173.9524706648663, 3291.7584824142978, 2266.316273728735, 2884.453374773264, 1807.7220232292311, 2940.10708233295, 2337.418923119083, 1721.7734760732492, 2242.126183987486
 |1954.637296229601, 2515.4037575672846, 1437.8347481648216, 1726.5556512313121, 2396.0345337956583, 1472.238125152497, 1145.495389171604, 1905.3218542749978, 1132.2872515631607, 504.55567692872137, 779.0843109330235, 3340.9971771351993, 917.9651649538428, 1205.8761731480793, 977.4724436977486, 1155.5482047284017, 715.9070670490835, 851.9119244865142, 112.8241269482196, 1087.236889672933, 562.5592075732909, 674.3285910142729, 839.4557874776631, 1328.8218931088759, 1196.0312742569076, 3120.672190110141, 1617.9290501684882, 2653.0742150204023, 2545.7379265305353, 3725.8457263152814, 2453.5335570912894, 1200.0217311941087, 538.5303727653809, 1858.977811679244, 2900.4729625637337
 |2912.6922387741506, 961.6855709615393, 430.8155309797203, 1007.0320175702523, 284.55560608344547, 1198.517919026735, 1826.6565242017114, 2605.9466984481332, 2087.481460252806, 1645.4989852325962, 646.7976266550154, 300.3707774413546, 111.16796207195148, 738.1369811421214, 1547.4666469223982, 3048.8854152773274, 1447.270609322016, 875.683174425154, 612.2429804621252, 1369.929367873876, 1136.8901762920432, 1687.3807924900684, 2784.015646197423, 511.2235192111425, 1590.5285901593352, 1394.3368803277845, 626.9466779989016, 2175.9682075731107, 1555.6428395022936, 1129.198274543728, 1072.746306653481, 1551.3823556321586, 2403.3280672784895, 1065.6506272879196, 2055.60039519571
 |1353.2651132864592, 2151.0317694554506, 2736.072078065883, 3435.262766288968, 4254.261558539955, 1223.508149726803, 1615.8730191286304, 736.8460294957622, 1582.413802953546, 1987.596973386333, 1121.646489906807, 73.4767235968211, 1637.770826654043, 1078.0016573862085, 567.9285936954639, 2090.442671085666, 1307.9403267096773, 611.9953665248468, 1525.3054761729477, 1660.3806314662484, 1329.7418720846763, 1013.0229751596926, 671.7855338370871, 1552.1737954763194, 1038.6120596526762, 3223.990221641991, 2247.9090059757, 3171.565959402593, 2690.1102259271493, 1695.8368773532504, 2438.140577929793, 3145.397903381847, 3801.45292378671, 1781.5421301090391, 3297.4407712187967
 |2022.0332129262379, 2294.509696282468, 2697.2458108630963, 1928.563636386223, 1325.1615090990183, 2559.394777625019, 3326.6315157302306, 3866.6929017079074, 1941.2793875234074, 1026.2097884580726, 1493.5382269192487, 302.52809919044375, 230.55316625954583, 1003.0725997245754, 866.3546701385112, 374.5704058856936, 1034.7708358694522, 971.7670148842226, 2114.074463360911, 855.7001118161471, 688.5797255792713, 1088.5895752676297, 1058.7161528056895, 2047.838046571389, 1790.4978938486893, 1696.1479118779694, 283.86344130694556, 1506.282833948033, 1903.5732248313725, 3637.286221317365, 1210.5823937712703, 2837.277468775399, 2572.6945259826025, 2227.037410970079, 3948.063204951206
 |3839.4041871295776, 682.4098573187439, 814.5277473484166, 1785.679601869313, 1133.0715485554229, 1808.81482940723, 1975.8303081441777, 2068.710943824317, 1686.173982767595, 1066.7864008791373, 1033.4475192370955, 56.322273502126336, 29.190027142874897, 398.8461084993987, 1039.2104569445864, 265.30656499700086, 1814.70692361374, 257.9353651525453, 816.2221039123833, 2220.370115727321, 417.382960230328, 1162.7197834992312, 824.4196261297111, 2557.0354963539367, 1069.4510376832252, 1190.2664540631904, 360.5352670843349, 1215.661440065552, 1276.5359716698295, 1236.3661853355588, 2581.042501703836, 5229.279305868316, 4346.147638869472, 2757.3268713229336, 4882.342929003644
 |2574.9177054553293, 309.4913043857625, 2356.8278083931655, 3545.783129219897, 1543.4777359458726, 2589.811767870102, 5315.778477337444, 2972.2391109892633, 1002.4987481323697, 393.0022762356132, 121.27836490880725, 639.3398404991167, 1942.5232937132823, 541.463062737606, 269.50874095613835, 660.9703374095261, 615.228317339439, 403.46550121111795, 866.3371110521257, 1055.6311638081283, 797.5577774012368, 657.3181550157465, 852.2229209519975, 1165.1089498027318, 832.181686456363, 3238.602000223589, 2474.851904910058, 1141.2876893247012, 1209.0339377258206, 1590.7032812929247, 1685.4765718634007, 2715.5630196924467, 3248.7495148568414, 1891.0985228983045, 2687.6018670842013
 |2444.384443730116, 1157.5282021007374, 1938.0914001863857, 1587.5644749090538, 1362.280432868534, 3278.6990072638146, 4686.067643492483, 3970.55578176945, 950.9889512654299, 909.7468954291375, 659.6458487042091, 877.3359139192471, 1904.0555590366994, 107.60196999890809, 905.0423032500671, 918.96475157139, 709.3036116836593, 153.56147794052958, 21.10127523355186, 163.37720122886407, 232.2593286051581, 273.07017326688504, 272.1471245211711, 872.9945983697565, 1491.488562017018, 1712.941271234556, 1623.412283068251, 1131.3984200433285, 1693.1183504348155, 1742.9953175165394, 2068.820346610726, 994.3792034000944, 2393.7270462943707, 1368.0516858520568, 4188.996942822895
 |2942.777065801318, 1469.1770546911353, 4855.934758811156, 3411.346588955932, 3578.9312446717786, 1348.823906131548, 1383.8355683060995, 955.1410702732923, 800.6271015502607, 1400.4863986378823, 589.0650841391835, 1074.9734255723888, 1259.6363568848465, 1121.6368423197418, 1554.4598730009748, 820.6220849901438, 1892.86520614638, 132.16742358356714, 59.38120358996093, 404.8860643410105, 526.2215254884989, 241.55984551483925, 654.6629435936247, 680.332409709692, 2206.4631550200284, 1322.1611252294365, 2050.080425981388, 448.40745893949475, 1552.602637026663, 1343.796542048425, 1862.7345066170292, 2893.948465763746, 819.2506404707674, 666.7513910162379, 1948.2849581325427
 |4370.015557959909, 2444.545309213807, 3578.650522802025, 2587.1860180229414, 3725.940810094062, 3394.795581833114, 2142.0233982106, 598.3310683764139, 2588.2916201207445, 811.3580743437633, 1819.6479731074069, 1044.2204424584677, 1459.372960136979, 2806.252491070889, 690.63729859057, 756.7592128144379, 586.042514877714, 343.6310029537417, 175.2227193461731, 258.3088739429063, 751.715194494381, 576.6525601842707, 747.7744643312161, 1224.1156965375894, 916.033704173693, 657.8924617610337, 1410.56710979715, 315.38032275575847, 1543.0513272620155, 2499.373051794595, 1994.845627773786, 1576.4442344239496, 1467.497001068201, 1849.1770387783763, 2168.579053584719
 |2002.1813515755348, 2774.1748433722787, 1306.1955758587137, 3890.360885482307, 4448.104983194742, 2351.4406342141237, 1853.1741073198355, 499.1377475408517, 3971.0440946620274, 1407.967626336318, 2588.1923746534158, 895.0870730093411, 1768.723193621263, 1123.4267947481387, 872.6238916073055, 265.7235008353057, 739.1597437703119, 275.0648575993204, 60.94385446049273, 522.1773195889373, 2016.5833149043249, 2326.539037825889, 2353.043684850447, 1086.5383515374288, 1121.1125616470235, 2334.720000396699, 1187.1264633853289, 490.997772588099, 1144.2257228411618, 1551.899518511258, 2050.625579919084, 1186.0779061780322, 2564.060520098654, 2803.966711513698, 4272.82168902643
 |1966.9964666475134, 2846.6585896057077, 1371.5659509062498, 2785.711679345881, 3639.4639553866837, 3447.658241583683, 2778.120258090831, 2396.6661519192767, 2044.1950907673286, 1448.202317872314, 1812.377368305993, 1525.2465645824695, 985.3087738191309, 886.9520130657093, 769.2630491456166, 1107.1286003130585, 1338.1030073327129, 1943.9664687916618, 1308.3536982596852, 1072.2479430920457, 30.579545576125383, 80.94965821271762, 1593.3737663956904, 1320.1683028026, 2408.3231161946023, 2018.7620180539107, 974.2858699900607, 2334.493361596775, 570.1002821603324, 1425.6115451999913, 1194.4547335008974, 1567.3453202865085, 4196.625763431657, 3602.5384783087065, 3605.059928826813
 |2725.4118168917903, 4175.26536930001, 2052.7473895594303, 4064.00811747634, 1833.5670795248334, 5125.821538219303, 4357.473265279049, 4237.788173249002, 1950.5313472354803, 2034.8010553172535, 2670.0986727822146, 3626.3320636175904, 1987.0417079074978, 1672.9874836430863, 204.31061306927415, 1177.4046528943597, 1365.3186031457656, 1379.9500879442785, 380.2813008008525, 658.711627778468, 1550.8987087966243, 667.52728309945, 1527.9164451464312, 1135.1934701388236, 1326.1509638837333, 1177.9830846194131, 1125.052826066487, 1406.9961415170328, 2847.9239544771845, 1539.0470039113452, 505.8039407490869, 1073.5093713374808, 4470.101920196088, 1640.0110217182664, 5020.275191750377
 |2156.750877965807, 2605.2248606642124, 981.6594175862094, 35.52809646536208, 1361.3918875804534, 5664.607224862884, 2960.582160657307, 2241.53548985043, 1333.1493898504634, 973.1735720676252, 1158.8115526883284, 1534.2057644671706, 1171.1768114156657, 1092.9082409898328, 848.1211299175579, 1567.856209971715, 1328.8200535555402, 1483.7301625656985, 781.9879129194368, 688.5350863782414, 1148.8585572229156, 2268.2544377160057, 1447.6169550786726, 1961.376277629548, 2766.239491398679, 1123.3153519653715, 930.7956102667958, 2187.9190150395734, 1688.5266507178312, 1045.197281273082, 1185.4450298340525, 1559.6459599859081, 999.6088424979243, 1194.8133770670975, 3062.7148075662553
 |2501.590862535068, 3168.3977578651975, 0.0, 794.9282688871026, 1559.8566819264088, 1706.1431385690616, 1206.7637125777333, 1004.3808840620986, 1479.5558063199985, 1290.6498441776355, 384.3109073280357, 1474.9308370930182, 3130.8503057642374, 3967.1962043827516, 890.8857686807562, 1002.4272426312357, 1539.1994978420798, 666.1084743897588, 3916.4265953127624, 4063.2026758384695, 2525.9956667209935, 2967.160525432587, 1829.2115244877386, 2068.1420180907016, 3030.359244829994, 654.7110824414794, 1033.2487422596541, 2229.4730954163824, 1919.0495465740096, 2309.982161901484, 2132.4304431152996, 1371.0056980439713, 2904.558296115778, 1495.144191501895, 1659.0601396989077
 |2493.125340608887, 2086.0365014416166, 0.0, 3062.0767469303682, 3378.227937616117, 1968.8417451514924, 1961.5522113456627, 2079.6136507962365, 2994.1980089163408, 3475.650179641283, 894.2427033284293, 1790.4700440804936, 956.9218573570383, 2682.3952625091188, 1664.7377855293098, 1682.543001582846, 2201.0844504844863, 1771.1259581960212, 1912.7737544661913, 358.8760705379377, 3208.1545096079353, 3616.241158540797, 2442.138987653856, 2407.0546656732913, 1293.6814643095368, 2076.7092203166885, 1180.1753246877488, 3134.054795807074, 2511.5372306822974, 731.6930090456641, 1786.850833536077, 1827.628445972774, 3141.182742787816, 3327.3447392388334, 3225.341552429367
 |2416.90715308564, 720.9638132790205, 168.1824982946273, 620.0813150444355, 2465.969166237339, 3550.8920607303917, 2611.5022846929496, 1472.5756403681553, 2893.202703427609, 3477.2757363497767, 3768.179667084478, 5101.856385516965, 1086.8250031536586, 2724.8621847826, 251.24396414324576, 1291.9465445040287, 2335.2181836076006, 1112.9448665141367, 1595.6229428127408, 3628.927057146677, 2720.041221016817, 3102.0314731756225, 2203.6744883852084, 458.45191254499474, 827.2577098812405, 2199.869836979795, 1986.2854733739514, 1065.1241826282348, 2663.8922994012064, 1416.1600685932208, 1216.7333078660595, 1114.7701636408456, 2901.5519751166576, 2297.6144358082547, 2418.0738944746045
 |1479.1404682703642, 4312.119500019778, 2725.877396091819, 4646.957127704285, 3622.2513703609475, 3442.77846664526, 2620.7998097232476, 1827.5864907841305, 2797.8759712486935, 1603.913653453361, 3493.245571775362, 3793.8002655603614, 2933.3643582716686, 3598.6322879674153, 1567.7626793669597, 1398.0022323114063, 819.0969875039211, 1467.9356690180368, 2404.732836127281, 2490.98192164395, 1611.1381480183336, 2700.806869910448, 2543.798595526976, 1076.8911213334684, 1112.57198164045, 1995.0004198596434, 2324.201645488554, 1517.4386533821817, 1317.319489342513, 2651.0001481882337, 842.248644136489, 1837.4563037090645, 4923.095002513379, 4965.434902563502, 2309.104122271143
 |1181.7847713487245, 3788.75480318442, 1279.3049145787954, 3410.588041024923, 2933.387753643786, 1925.480066334112, 3022.2076180566137, 3289.170817958511, 2988.6759012388065, 3358.436349230764, 2312.503235873797, 1772.1542790012427, 1733.8115587445707, 3501.1842037178553, 742.1414451343135, 1735.9222272792995, 1660.0306875425172, 854.8930851309669, 1518.4879302615154, 737.0287065757802, 1916.4380832114257, 2152.104657116889, 1729.8443419919765, 843.3945412101114, 1247.9943933959476, 719.839490579584, 1643.908462029358, 2372.3798393878387, 1064.3402747401606, 1511.1689319228203, 2224.43955461531, 3648.9556139600463, 1946.9074126622581, 3101.1970125276275, 310.81349814690475
 |1816.46610615775, 302.8258340358734, 1.8189894035458565e-12, 3865.9944215245196, 2880.693673322862, 3903.5345231964457, 2937.6552848316633, 4289.200919335184, 2926.5292703911255, 3333.0582398055176, 2002.0399381686448, 1111.212213746081, 2129.298319180496, 627.3929951936007, 512.4101688396522, 1287.866592895935, 1504.1747117636896, 1880.3569662342968, 1840.1118005339522, 3067.560031003286, 2644.282502070673, 2101.4812517208375, 3300.5036032436074, 1268.4254776882008, 1935.5858266583164, 1657.6913009824011, 2453.2641889204447, 3619.8984404066578, 3322.308211329393, 663.4771095118231, 1471.5951371612027, 827.062067322433, 1328.6404035952655, 3349.043351926299, 2457.847040761495
 |575.6361161843288, 0.0, 6.826337559454054e-10, 1818.889052005863, 1931.5500721095332, 3046.9582091748052, 2226.368492081094, 2286.9475462187975, 2176.504218372922, 2412.543088345188, 2040.923178725362, 2498.2913227675017, 3786.545185260402, 2834.2362803300857, 3424.855698914267, 2384.799185566604, 2339.7883522780467, 3051.5147440279416, 1558.009043693055, 1343.3232529094994, 2136.290708922548, 1208.2809596505485, 2770.5668947299473, 969.9351649417922, 1799.7297679980102, 1532.0002803320804, 2134.623755506096, 1756.2664827879394, 2306.989309067738, 2991.2592214745564, 876.9028468803735, 2115.5513968761006, 4756.961251161356, 3125.5288589612974, 1155.8890781064983
 |0.0, 0.0, 55.30169622376411, 5357.626404654709, 213.04939005724555, 4649.434821469387, 820.374328834936, 589.0738772116601, 1084.9689058939257, 1082.8931285754447, 1525.087403971942, 4089.6689869230613, 3360.2455310029327, 2322.7478977983665, 3438.6619315879207, 4468.916917068418, 6530.928178593516, 3859.47779179411, 1204.3236341550946, 7024.6175530757755, 2220.337268119678, 1979.885072966572, 1805.283203419065, 256.90589586848364, 1812.076028991909, 1307.5481824534945, 3071.642623809632, 3978.117196014151, 2583.84772253926, 1266.0016348105855, 927.1072041510488, 884.9046359971217, 1674.0584468669413, 3210.285965482649, 1041.560285877924
 |0.0, 0.0, 0.0, 57.681014482164755, 673.9994220428634, 517.6032299995422, 0.0, 0.0, 0.0, 117.44981088070199, 1629.7613250774275, 1252.7317132962962, 3142.3993334104434, 2520.8556992793456, 4858.463623481844, 3218.3929849458495, 3361.046990159899, 2727.5388660447206, 2558.8103389464377, 4887.295893878334, 2577.886388540268, 1687.0571368153687, 5207.175326257944, 1022.8270821765241, 727.5984202528666, 1211.219929290004, 43.90720343077555, 625.1447541415691, 1382.1611621901393, 636.2970929607109, 263.3826599678141, 2625.6095834908956, 674.0693453427084, 2072.080986814486, 2952.8163945791675
 |0.0, 0.0, 0.0, 0.0, 0.0, 0.0, 5.587935447692871e-09, 0.0, 62.321393583435565, 2036.5708205176052, 1258.5348816014875, 2299.322745636002, 2880.4431439123546, 1737.8164704938613, 1747.5057155841637, 2294.470658351609, 2905.5607466616148, 0.40332150503127195, 3480.2472786842845, 3580.2626406855125, 2151.7886046954845, 1118.39251101017, 1403.1253498009173, 2804.4643473655997, 2996.612695408954, 860.2280067685866, 35.880032206784676, 0.005846696544907104, 0.0012054863046557784, 0.0, 0.0, 0.0, 1080.7847156947028, 2124.6024895473383, 2733.863018284459
 |];
green_space = [| 1909.5048021497205, 108.41202765703201, 409.5466618221253, 1204.6821615276858, 2633.4439180083573, 299.9002267047763, 3676.2037074323744, 1894.8298332896084, 1.0, 235.61040117032826, 1331.2077103258925, 372.2661034325138, 944.4097786229104, 1176.6603471897542, 2884.7977450024337, 1889.379430256784, 1.0, 179.8493299856782, 451.62141294777393, 157.20526927290484, 974.1250895382836, 161.2953911065124, 383.210524674505, 1.0, 1.0, 1.0, 1.0, 1.0, 1.0, 96.56978450343013, 34.78383898921311, 35.58619170449674, 1316.8409266881645, 4417.710001049563, 255.6296268068254
 |1153.2006709217094, 388.56403797119856, 1.0, 1588.9863525724504, 237.7696157330647, 27.86621246766299, 725.9006084715948, 909.4154261499643, 1.0, 1.0, 327.91412468999624, 2691.281152276206, 3639.523905267939, 55.41171845048666, 2695.7825881964177, 1412.49103543628, 940.4788719126955, 5766.691053527407, 930.9074789416045, 1744.3522528856993, 1938.7312803445384, 1069.5621320577338, 243.02509371284395, 1.0, 1.0, 187.70214154943824, 1059.197124354425, 295.1902893669903, 1.0, 1281.0835881195962, 1660.4536070819013, 1625.763295097102, 1013.1232734234072, 3018.3919816659763, 6636.286451335996
 |2313.057778346818, 705.3430925763678, 404.67593506583944, 94.45269344747066, 1.0, 488.4381689550355, 3304.6659025980625, 4415.72608689405, 2975.4345958139747, 656.7726749051362, 1063.6564564146101, 4995.7634854801, 5341.2596992861945, 115.73657281580381, 1.0, 1.0, 30.20683083217591, 964.1842616372742, 345.4466003328562, 1701.4747626120225, 2667.6292410222813, 347.0779230296612, 258.72836039960384, 615.4490387062542, 465.05926667526364, 497.95594047755003, 4939.757020636811, 1571.2624365870142, 740.9011666877195, 80.75944772944786, 5899.056290344568, 2931.694199513644, 5892.955741555779, 7509.72682165727, 6813.831055935472
 |2804.5902117658406, 632.1948372293264, 1540.232833711896, 399.7687964460347, 1258.9364924855763, 3565.2533532491652, 14.50071715330705, 115.83348406851292, 814.141903221258, 766.1638554937672, 1.0, 1596.114885901101, 833.6417679134756, 1.0, 1.0, 270.31555688381195, 158.7067875470966, 2736.501068499172, 4342.378978263587, 653.4089726638049, 6585.311085205525, 8854.472001120448, 8266.762972027063, 5719.465043014381, 307.97620121203363, 1431.002101497259, 2404.5530175217427, 174.93377923965454, 401.8286631992087, 485.2764606514247, 320.1370525029488, 2740.2063310034573, 6847.585567176342, 9832.71353499405, 9580.76799288392
 |4087.8776027513086, 4488.982223382958, 1371.7985526297707, 1244.3679731804878, 216.62794005637988, 773.4905402995646, 360.5743021070957, 3017.3600939111784, 3914.074921888765, 4901.713887134182, 1845.5086225271225, 1.7418521996587515, 92.29952613636851, 1.0, 286.38061314681545, 1.0, 190.12749857036397, 1786.935664520126, 639.8302049487829, 176.88711370900273, 9282.101181209087, 8785.215486024623, 10000.0, 7441.302206158638, 2914.412521088496, 1811.271354328841, 313.1466362817446, 2232.708354600705, 3521.270220035687, 571.9885896071792, 1478.5744786092546, 2983.4158144292887, 1340.6345389848866, 4633.953964069602, 7558.132693387568
 |1466.1557537103072, 5518.9520950727165, 3687.2864140719175, 1267.243216897652, 427.6970910737291, 937.6158448660426, 1338.4933930530387, 551.8756329836324, 299.0065581439994, 6683.053555939347, 7023.998692691326, 1384.840054191649, 1.0, 190.0202342448756, 4154.438391937641, 126.35779815539718, 348.4198978296481, 66.85623441264033, 41.02853575721383, 1225.765490416903, 8044.78705149889, 5527.11077841837, 4953.296006791294, 4347.328181887511, 3000.3524956470355, 2263.691901795566, 175.70854876562953, 367.64390991814435, 282.68503775214776, 1021.5384034346789, 2620.5224623312242, 2442.411553459242, 5562.260928771662, 708.7525165264669, 772.6530816571321
 |599.0896320659667, 1264.140276569873, 1192.953725163592, 946.3409229249228, 2504.3740183291957, 1184.8901957254857, 1134.1838546264917, 907.308942399919, 2034.109956423752, 4001.560844999738, 966.2338811310474, 3415.3747965653893, 1308.8524253270589, 854.1059336881153, 164.81354793906212, 138.38446237146854, 176.16204450279474, 1.0, 1.0, 178.64751745946705, 7516.0766078829765, 9554.555765286088, 2306.9167273938656, 1359.1862279800698, 575.3186377538368, 610.1237715780735, 1827.379973107949, 304.790917086415, 1.0, 3224.2602922581136, 6161.896719133947, 2217.0081097413786, 1526.6164083965123, 115.43662101961672, 637.6717788423412
 |2963.0223279623315, 3970.3147371783853, 2762.396584517206, 1978.3760424359934, 5556.876528374589, 1497.7686749035493, 1.0, 228.07773771882057, 342.17380179464817, 1343.2441116459668, 4995.1898574810475, 2894.0275487974286, 4873.4411113579245, 993.3639366875868, 544.439810205251, 320.1408176328987, 339.3559551378712, 598.892470751889, 622.3932358066086, 1.0, 225.10342261195183, 1529.7330557107925, 698.7785710506141, 54.0374575862661, 1.0, 498.6820613257587, 1698.4751077978872, 731.2902840226889, 1765.1589084118605, 7911.830636747181, 3324.378450043965, 6632.412274128757, 3587.479447737336, 1.0, 935.5289216861129
 |2277.1497877978254, 2605.3365623597056, 2511.3408518796787, 1543.3709740291815, 2740.2471645346377, 804.2821621415205, 852.3046530126594, 114.30932789295912, 100.62685763696209, 771.0753064975142, 7879.24526014179, 2009.4773084446788, 608.3136143619195, 1.9783305702731013, 114.37798918969929, 1634.262421860476, 29.48185125552118, 1.0, 1.0, 25.82740458101034, 1.0, 1.0, 1.0, 849.223002364859, 1.0, 680.0984752792865, 1.0368093145661987, 2105.051644471474, 5442.17215668445, 6251.446205037762, 3818.230187542271, 2120.138541149441, 2805.9070320762694, 1.0, 405.96052604168653
 |1530.0157031472772, 1890.3508168889384, 1192.7232434637845, 3727.573143750429, 9807.664842247963, 729.0318300891668, 1708.063908278942, 621.5208790190518, 1.0, 1.0, 7564.377824304625, 6922.589384874795, 457.05676601827145, 1.0, 1.0, 1236.86824994348, 20.30446061718976, 1.0, 131.53145337477326, 2829.5830043610185, 1.0, 154.420411801897, 1.0, 1563.5870267096907, 1011.9605519026518, 539.8155036652461, 108.94126968830824, 310.6291222535074, 3069.2791261738166, 3043.4085770663805, 2316.6466899616644, 2456.3109709112905, 3123.7234021150507, 1.0, 1.0
 |1764.9508102308027, 1131.2018615212291, 123.30939458496869, 145.05244674533606, 613.4864378869534, 1054.1394149627304, 1788.0372400422348, 225.91146128857508, 1.0, 94.20114447921515, 2714.457528721541, 755.8152245283127, 283.4456182420254, 1.0, 1.0, 159.21223226562142, 1.0, 150.89900621026754, 32.95004955679178, 117.05645142775029, 1.0, 102.02922703861259, 811.8322481662035, 252.6820393782109, 830.7169372774661, 228.61500272061676, 278.44499674485996, 3722.062364267069, 1804.0085645504296, 1355.3464920818806, 2304.3692359086126, 3854.741478881566, 2077.7450670551043, 106.0109132938087, 601.9792065257207
 |1077.5414295569062, 1784.8089599460363, 1.0, 1.0, 115.03435235470533, 21.261012816801667, 1164.3493864382617, 1564.4243542589247, 437.679449994117, 150.27679770439863, 1.0, 2190.744399121497, 1.0, 1.0, 1.0, 31.42795003578067, 257.67667249403894, 155.43580343353096, 1.0, 1.0, 1.0, 1.0, 116.31726967170835, 1507.2874544970691, 481.04640463739634, 935.3410413186066, 70.07883510552347, 1156.1093473439105, 750.7309180700686, 241.8591693835333, 1420.425358156208, 587.53505121544, 596.6158205948304, 325.9257718833396, 2412.861426538788
 |2391.838660698384, 1469.84355638735, 103.20731681957841, 90.93506542220712, 610.1729966304265, 1.0, 740.8469923490193, 1609.8583695478737, 1757.1739301644266, 2549.066405750811, 1.0, 61.35263969749212, 1632.1842094972963, 71.76621685316786, 1.0, 1.0, 1.0, 1.0, 1.0, 131.9887922303751, 1.0, 856.2426689695567, 682.1912435896229, 133.67912327498198, 177.40371085703373, 1889.4567504040897, 1330.5754475463182, 588.6896797940135, 1.0, 601.636087724939, 1.0, 1957.701357319951, 1081.237644072622, 2751.3938466395484, 2201.4527228805237
 |2112.8477230776334, 1158.462959818542, 116.0169163546525, 1774.5416298680939, 849.417477985844, 207.62337606213987, 1362.9141122642905, 117.56290800124407, 1338.7788741476834, 400.2052377089858, 1.0, 1.0, 158.38279551267624, 471.6662986651063, 286.04839136917144, 578.8521320270374, 1.0, 1.0, 1.0, 1.0, 1.0, 1.0, 1.0, 539.1609157146886, 37.42259948718129, 2170.1986098765046, 670.2898355270736, 6.809887282550335, 35.84618902951479, 996.5011068768799, 633.3718140278943, 3479.770838933531, 1833.2991588320583, 1899.4486612947658, 2752.728448646725
 |1173.4617367386818, 901.8539988589473, 74.54791212407872, 1387.723891147878, 2546.0583403273486, 2594.2111569156405, 1451.3067218133947, 2239.144005424052, 448.32401882344857, 280.1254263734445, 1.0, 1.0, 1.0, 1.0, 1.0, 1.0, 1.0, 1.0, 418.0265521778365, 473.55256548081525, 1.0, 1.0, 1.0, 1.0, 1.0, 3.957123000174761, 1.0, 5.030748177319765, 842.6065659420565, 956.1963347501587, 848.0492555862293, 3326.1131919510663, 1341.65430483222, 3302.4236615966074, 2622.4266723678447
 |1612.5794421155442, 1784.4578843303025, 1.0, 977.143595290836, 630.9057792760432, 967.9183200187981, 385.8343670144677, 1.0, 1.0, 1.0, 1.0, 1.0, 1.0, 1.0, 1.0, 1.0, 134.53110324963927, 1.0, 1.0, 1.0, 1.0, 1.0, 1.0, 1.0, 584.4492199420929, 466.45629077777267, 2427.5614544041455, 18.845673426054418, 668.186024680268, 654.7380477301776, 883.8406137847342, 2445.746721143252, 2560.9231996113667, 3451.5770174723584, 1850.9954635638278
 |526.800126567483, 1510.9994677901268, 2156.462748169899, 862.7529904060066, 1556.0194280038122, 2118.923216532159, 784.7783710891381, 1651.969649210805, 441.21631831355626, 2377.4298949160147, 2470.257915182039, 189.0904761571437, 732.1520441025496, 1.0, 1.0, 1.0, 1.0, 1.0, 1.0, 1.0, 1.0, 1.0, 1.0, 1.0, 376.1109948065132, 1451.054059265647, 1668.1768564879894, 1.0, 236.65805005282164, 585.8977060429752, 1291.3596287069377, 2236.6908599263115, 611.4272732585669, 2824.082605378004, 1859.6456034493167
 |1790.5000027106144, 1165.2600992820226, 1067.3278546258807, 456.308327564504, 909.7969076521695, 849.9032029956579, 930.6977288541384, 1298.121285816189, 1939.298423975706, 1395.9181424058042, 1947.793196175713, 156.40665045194328, 59.538052037358284, 749.2907515112311, 1.0, 920.4095800798095, 700.281938277185, 1.0, 1.0, 1.0, 1.0, 1.0, 1.0, 1.0, 1.0, 463.402809150517, 710.0044280122966, 356.85509695485234, 250.53425304125994, 5.001866759732366, 1622.3276944123209, 853.6246977146075, 810.8651841366664, 637.7140222629532, 627.2707527913153
 |1047.9973351865774, 1941.9695621133505, 2700.315691118827, 2407.580429480411, 1351.068497870001, 919.2920969042461, 244.58255773596466, 241.63370147533715, 1519.8111664757598, 2867.231782973744, 1124.2150103133172, 812.5885339197703, 65.30611036717892, 54.23553902376443, 1.0, 161.4259111881256, 89.03331882506609, 1.0, 1.0, 1.0, 1.0, 1.0, 1.0, 1.0, 208.03636793559417, 1.0, 155.82276517152786, 1.0, 1121.6463290355168, 396.47099448088557, 775.9441746454686, 1.0, 558.4073169410694, 544.1266959682107, 1327.9684291407466
 |1845.081607750617, 4330.723240679945, 2784.6540671661496, 2382.3490175390616, 2216.8778416574933, 1342.0924952415517, 1463.364113021642, 5032.963027548976, 2945.762308496982, 8.860370064154267, 125.49835493601859, 721.3156908433884, 574.7839747713879, 201.9427919993177, 1.0, 1.0, 1.0, 1.0, 1.0, 1.0, 1.0, 1.0, 1.0, 429.7242298554629, 1.0, 1.0, 2009.0787224865635, 376.933414064697, 110.3178577136714, 594.1847588678356, 2765.9085996253416, 157.07106557767838, 1544.3803626834415, 2963.1006452236325, 2392.5281836098293
 |3943.6685402756557, 2234.3047218510183, 3390.7987359841354, 2991.424957277719, 3387.5581618447322, 741.5542420860147, 1259.2795799459564, 3952.583992858883, 1118.8136998079717, 1.0, 560.9244848042727, 348.4475640754681, 736.0602363387588, 302.5194611637853, 492.03286224091426, 96.21091078221798, 435.0096703246236, 1.0, 1.0, 259.0698480338324, 1.0, 1.0, 456.21863870322704, 1.0, 629.7532384768128, 969.1211343472824, 96.05575835611671, 339.94796917703934, 2107.2674120143056, 1671.6503680944443, 3874.598165181931, 512.246537450701, 334.15180712286383, 1851.8283904078003, 3309.527621460147
 |2246.3584718118655, 3687.0411162376404, 1660.8002356174402, 1093.2713718172163, 1978.7270424303133, 120.6505690922495, 1963.6604114766233, 2970.3459141015774, 660.8490099273622, 585.1898218309507, 1682.154052123893, 2486.3709742219653, 94.80505367857404, 425.06503074243665, 598.0100173931569, 1198.3872776913922, 10.921984534710646, 1.0, 1.0, 555.3089073604206, 841.5304774455726, 1.0, 1.0, 269.8455237429589, 1034.1130150074605, 1978.5549469981343, 457.11879441700876, 424.7253470066935, 1.0, 953.6389436358586, 1632.3764642942697, 2914.0730499532074, 1265.6064711743966, 3401.3831487474963, 2845.9943422369906
 |2218.2344960540067, 3457.480551878689, 1831.5326821702765, 6.767223823815584, 2801.281811694149, 1288.0482095661573, 1164.7385408710688, 3982.1699853446335, 181.8402747772634, 1313.1836482034996, 145.09631396993063, 290.6630772445351, 669.7664912631735, 6.715737243182957, 243.87697228603065, 760.6128859445453, 1.0, 62.09183170623146, 1924.181875616312, 176.34584783948958, 1.0, 1.0, 451.2969411741942, 40.023736614733934, 174.40219530649483, 1316.0195218715817, 1.0, 1419.040901420638, 508.54542135447264, 1367.6476108692586, 657.7319161277264, 2.0617796345613897, 821.4501568251289, 3658.8926277623978, 1425.0756745091057
 |821.6629781096708, 1198.5942082714755, 1333.8508940038737, 4156.878187207505, 746.1462831939571, 441.83815068751574, 916.7853187248111, 3187.7519607627764, 719.4632707219571, 1524.1890061181039, 1194.513244209811, 17.5807922501117, 1249.6997663285583, 1989.4700541403145, 1102.5152031108737, 1660.0494009256363, 1.0, 104.85244120284915, 1044.0873968079686, 75.48710054717958, 1.0, 1.0, 1.0, 102.44309725612402, 148.50972724705935, 1.0, 310.56741300970316, 3.868574796244502, 858.4495860631578, 4704.1549598276615, 3255.3939447999, 102.37142019718885, 1.4628690537065268, 2249.1110632531345, 1689.6761940345168
 |931.7214502545539, 497.98834529076703, 7808.621100850403, 4067.7201290093362, 2769.367646469269, 1252.1727605176857, 129.6834328630939, 63.3769908354152, 166.37485084950458, 842.4225384113379, 1047.7319286474958, 532.4644877500832, 462.26221861550584, 640.0218103330117, 1.0, 1.0, 35.448368462733924, 559.3131566895172, 667.8669516779482, 548.9262497229502, 723.4950156810228, 440.6775837109308, 634.2638216242194, 601.1782972589135, 473.613621622324, 1.0, 493.1297709532082, 2666.874715040205, 635.0985449999571, 5203.540118873119, 5827.585628973786, 2552.6572743840516, 1775.0662150974385, 708.3762599341571, 297.1099895276129
 |4228.760948354378, 4031.885663827881, 10000.0, 5247.828932560049, 3492.42814398231, 3360.4333767900243, 4208.009320313344, 2890.8329081181437, 6470.075555906165, 3069.405330773443, 1054.2882604319602, 37.957058497704566, 4616.249469317496, 1386.6652192659676, 417.48021191358566, 312.96616114676, 4140.367164185271, 1388.0059063904919, 816.5679386798292, 2233.920014408417, 2154.9769756877795, 3132.327417421213, 1.0, 1.0, 1.0, 463.9968287535012, 152.01403707265854, 1371.4318665489554, 4769.39226557035, 1097.4321624599397, 730.096984884236, 873.9103529892163, 3173.0743182348087, 2926.861533556832, 1379.3144066041568
 |2666.356800282141, 6116.820723713376, 9832.817501626909, 8508.67897669971, 5860.093056935817, 3141.1025000285154, 3821.5008958051912, 2923.2566212678794, 3902.348078568466, 2053.2517769746482, 568.6004771646112, 461.3731075525284, 2314.4914860725403, 759.1094264015555, 1.0, 498.9063202738762, 1152.3695051434916, 253.22738619497977, 2795.3891430888325, 323.4316407311708, 1451.2443249821663, 611.448758084327, 552.4273014776409, 324.0821885485202, 1.0, 3377.2891872674227, 3198.271616205573, 1.0, 1789.6404287563637, 1697.447981626261, 2566.2853934126906, 911.0638210531324, 1635.266100474866, 1698.9397519656195, 2153.554104843177
 |4751.730048055062, 2527.5289219133556, 3454.6005304828286, 1822.2545655127615, 3282.4601735053584, 3852.8498491329374, 3483.934429098619, 3476.5816583037376, 1060.8057862636633, 2566.0748145137914, 452.8380980733782, 1578.941838491708, 2184.899819697137, 2070.581426556804, 583.8609594991431, 721.8933557979763, 368.2062505558133, 100.62711986340582, 138.20613811165094, 382.37189557403326, 521.8119854084216, 1897.4669832214713, 953.9569156048819, 387.9109931429848, 1444.633963833563, 985.6406262377277, 2931.1372296898626, 2093.0120356976986, 238.19856395479292, 1858.6091050403193, 3409.089208621037, 5442.696588129038, 2192.495280586183, 3699.6828821543604, 3551.386943246005
 |7914.469017098658, 4200.294508952647, 4919.880908379564, 1451.6270734975114, 4931.414428040589, 5093.905116644019, 4433.244186712895, 1693.1272844686173, 2935.230156227015, 2174.614144977415, 1972.053643847812, 1986.0988894621842, 2236.722735442687, 829.456259588711, 1726.5212447140366, 1294.7081295847893, 1121.9605554887094, 1855.6957910305355, 480.2632643310353, 1856.1619577482343, 562.7185478108004, 786.4632744332775, 936.9219844834879, 61.635810336098075, 3060.9496524157003, 5476.306851937901, 1242.5804832689464, 5294.3555081784725, 1.0, 340.38377082906663, 2376.3971066996455, 1553.785719791893, 2054.081081681419, 4053.38267078856, 2018.6295150039296
 |7709.893115311861, 7480.300010947161, 9972.523793935776, 2960.4837243746733, 3727.0053154857596, 4078.7599215991795, 4973.111324738478, 1904.2100449618883, 1998.9297501025721, 2759.4686969448812, 3090.285408800468, 4896.952605262399, 1220.7901279889047, 1137.2661223676987, 632.0805766936392, 1.1870991010218859, 988.5591119010933, 2173.845409282949, 1867.3775252671912, 1608.8330683372915, 3112.827702506911, 2307.3132044700906, 2952.1392452199943, 376.8761484241113, 1524.6960969255306, 42.20391497388482, 1.0, 139.50270688533783, 1031.7981225401163, 79.25137983448803, 1963.0183054516092, 5355.382142000832, 5929.1030028304085, 2507.2607212071307, 1602.029671240598
 |8843.091072831303, 9847.684956138022, 10000.0, 5874.351836331014, 5697.650624573231, 3399.6302356906235, 4388.28808207158, 2822.7690551020205, 1428.4337055553915, 2079.818246641371, 6490.440025005955, 3876.7091526235454, 1251.3282357794233, 464.6667634919286, 1203.3291264393483, 1444.5345012685284, 1195.6685007056221, 1020.9663828173652, 3745.6047726767138, 3134.2104439155664, 2850.8167254030704, 834.4521328695118, 852.0044769085944, 405.31586066028103, 1682.6852036230266, 3549.0036893775687, 1455.6567203835584, 1228.4695559360553, 2293.6879343730398, 2349.108271568548, 703.61887526582, 4581.291041465476, 2910.991944361478, 1646.2665666490793, 1810.8035615905683
 |10000.0, 10000.0, 9861.068351624592, 3064.3128843226004, 9273.61395816505, 3968.8983896067366, 8707.0316933617, 8953.334394469857, 7908.877065042383, 7449.706222801935, 5546.054346943274, 2419.5121010928415, 2058.060382691445, 828.2065619647037, 371.7997077163309, 1773.2115987893194, 1454.4848989199381, 952.4893554321025, 6038.899483174086, 454.363595969975, 1780.238375772722, 751.7075367784128, 927.1801038521808, 1235.5713253376307, 1643.3385057067499, 3998.7825119171757, 1713.3980930729304, 2328.002604674548, 1502.0215048734099, 3208.8516295687004, 4566.526185607305, 1877.1575424254406, 3534.4696899401024, 1834.469083375996, 4669.877813560888
 |10000.0, 10000.0, 10000.0, 9924.067377746105, 9275.856278508902, 9472.251256637275, 8705.735424373299, 9709.716012090445, 9016.052103936672, 9854.055275125429, 4984.044138982426, 4338.89142795885, 2854.498865091242, 1435.4994262480177, 236.49705525208265, 2144.255889852415, 4440.66442380799, 3736.503484725952, 5876.815997630358, 1238.8196959132329, 1046.160190308001, 1.0, 578.6822184175253, 1502.8085699125659, 1272.4213460832834, 6205.503159639426, 7690.930305542541, 6223.145742516033, 4660.54693994578, 3273.482765735127, 4925.027017390821, 2718.603292385116, 291.60106819076464, 2002.3577601984143, 3237.6636927048676
 |10000.0, 10000.0, 10000.0, 9949.164933145046, 9796.74793791771, 9778.780105143785, 9354.7857157588, 8355.435098706745, 9721.044231077656, 4349.449931322248, 6117.711798648816, 4858.249445270747, 4514.563290101476, 2493.8947766218334, 4534.023415999487, 4344.802687206306, 5015.661759962328, 9850.90581613779, 6048.491886824369, 4527.431600983604, 2722.335816047853, 685.5276944600046, 1718.1808771304786, 2357.099637640873, 4928.61272452143, 7538.695934726788, 9912.936813060147, 10000.0, 10000.0, 10000.0, 9905.114646494389, 8684.593533068895, 2503.6150385702495, 2143.528382030083, 2157.372346266173
 |];
num_areas = [| 4.0, 4.0, 8.0, 11.0, 5.0, 6.0, 8.0, 3.0, 4.0, 5.0, 5.0, 4.0, 3.0, 6.0, 8.0, 8.0, 6.0, 5.0, 5.0, 4.0, 6.0, 11.0, 2.0, 1.0, 0.0, 0.0, 0.0, 0.0, 0.0, 2.0, 8.0, 4.0, 7.0, 7.0, 6.0
 |5.0, 6.0, 7.0, 6.0, 8.0, 11.0, 13.0, 12.0, 5.0, 3.0, 4.0, 3.0, 2.0, 6.0, 5.0, 6.0, 6.0, 6.0, 4.0, 3.0, 4.0, 11.0, 15.0, 9.0, 7.0, 3.0, 3.0, 1.0, 2.0, 4.0, 7.0, 10.0, 6.0, 7.0, 7.0
 |7.0, 5.0, 7.0, 11.0, 7.0, 12.0, 9.0, 9.0, 4.0, 3.0, 7.0, 7.0, 5.0, 6.0, 5.0, 4.0, 4.0, 6.0, 7.0, 2.0, 4.0, 5.0, 2.0, 6.0, 9.0, 5.0, 8.0, 8.0, 5.0, 4.0, 8.0, 8.0, 9.0, 7.0, 3.0
 |6.0, 7.0, 7.0, 3.0, 3.0, 12.0, 5.0, 6.0, 7.0, 7.0, 5.0, 4.0, 10.0, 7.0, 7.0, 10.0, 9.0, 7.0, 7.0, 8.0, 5.0, 6.0, 2.0, 5.0, 4.0, 9.0, 4.0, 1.0, 7.0, 7.0, 3.0, 5.0, 9.0, 5.0, 1.0
 |4.0, 15.0, 6.0, 3.0, 6.0, 12.0, 7.0, 10.0, 10.0, 15.0, 6.0, 5.0, 6.0, 6.0, 5.0, 11.0, 7.0, 7.0, 3.0, 10.0, 3.0, 13.0, 0.0, 1.0, 8.0, 9.0, 6.0, 6.0, 7.0, 3.0, 2.0, 4.0, 5.0, 3.0, 5.0
 |10.0, 7.0, 5.0, 5.0, 7.0, 11.0, 9.0, 9.0, 8.0, 9.0, 8.0, 6.0, 8.0, 3.0, 5.0, 11.0, 10.0, 8.0, 13.0, 9.0, 2.0, 3.0, 3.0, 3.0, 11.0, 5.0, 8.0, 9.0, 5.0, 4.0, 2.0, 2.0, 3.0, 2.0, 6.0
 |5.0, 2.0, 7.0, 4.0, 10.0, 13.0, 9.0, 11.0, 9.0, 11.0, 4.0, 8.0, 5.0, 7.0, 5.0, 8.0, 9.0, 7.0, 8.0, 8.0, 5.0, 2.0, 7.0, 10.0, 4.0, 8.0, 11.0, 9.0, 3.0, 6.0, 5.0, 3.0, 3.0, 4.0, 6.0
 |12.0, 6.0, 5.0, 4.0, 14.0, 11.0, 7.0, 8.0, 10.0, 10.0, 3.0, 7.0, 10.0, 5.0, 12.0, 15.0, 11.0, 12.0, 11.0, 7.0, 2.0, 4.0, 10.0, 8.0, 6.0, 10.0, 7.0, 16.0, 5.0, 1.0, 2.0, 5.0, 5.0, 3.0, 7.0
 |5.0, 10.0, 9.0, 4.0, 5.0, 5.0, 6.0, 6.0, 3.0, 10.0, 4.0, 13.0, 7.0, 7.0, 18.0, 30.0, 16.0, 16.0, 10.0, 5.0, 0.0, 9.0, 13.0, 8.0, 7.0, 10.0, 13.0, 8.0, 7.0, 3.0, 4.0, 3.0, 4.0, 2.0, 4.0
 |5.0, 12.0, 7.0, 6.0, 3.0, 9.0, 13.0, 8.0, 9.0, 13.0, 3.0, 4.0, 9.0, 6.0, 19.0, 24.0, 17.0, 18.0, 10.0, 13.0, 15.0, 9.0, 13.0, 19.0, 20.0, 11.0, 8.0, 7.0, 5.0, 6.0, 6.0, 6.0, 6.0, 5.0, 9.0
 |3.0, 18.0, 9.0, 7.0, 9.0, 5.0, 9.0, 4.0, 6.0, 8.0, 4.0, 6.0, 8.0, 6.0, 15.0, 13.0, 10.0, 11.0, 9.0, 17.0, 15.0, 9.0, 16.0, 23.0, 23.0, 28.0, 21.0, 8.0, 8.0, 3.0, 5.0, 4.0, 3.0, 8.0, 10.0
 |6.0, 10.0, 13.0, 18.0, 6.0, 10.0, 27.0, 10.0, 6.0, 4.0, 6.0, 9.0, 6.0, 7.0, 14.0, 16.0, 13.0, 19.0, 7.0, 20.0, 18.0, 14.0, 18.0, 19.0, 21.0, 17.0, 21.0, 16.0, 14.0, 7.0, 16.0, 4.0, 7.0, 2.0, 8.0
 |4.0, 11.0, 12.0, 11.0, 9.0, 25.0, 21.0, 16.0, 6.0, 16.0, 10.0, 9.0, 5.0, 11.0, 15.0, 8.0, 12.0, 16.0, 12.0, 15.0, 10.0, 14.0, 9.0, 14.0, 13.0, 14.0, 19.0, 12.0, 15.0, 14.0, 20.0, 12.0, 8.0, 8.0, 8.0
 |9.0, 6.0, 10.0, 11.0, 7.0, 25.0, 20.0, 20.0, 22.0, 8.0, 6.0, 4.0, 4.0, 8.0, 15.0, 15.0, 11.0, 10.0, 14.0, 25.0, 11.0, 7.0, 14.0, 21.0, 23.0, 8.0, 10.0, 11.0, 10.0, 7.0, 7.0, 7.0, 9.0, 4.0, 9.0
 |6.0, 6.0, 6.0, 13.0, 22.0, 15.0, 13.0, 8.0, 11.0, 12.0, 7.0, 4.0, 7.0, 14.0, 12.0, 11.0, 10.0, 9.0, 10.0, 19.0, 8.0, 8.0, 16.0, 17.0, 15.0, 11.0, 5.0, 6.0, 8.0, 5.0, 9.0, 8.0, 9.0, 5.0, 8.0
 |5.0, 8.0, 6.0, 17.0, 30.0, 20.0, 22.0, 14.0, 11.0, 22.0, 18.0, 2.0, 3.0, 10.0, 13.0, 10.0, 8.0, 3.0, 7.0, 8.0, 9.0, 17.0, 14.0, 12.0, 8.0, 8.0, 15.0, 21.0, 13.0, 11.0, 5.0, 2.0, 2.0, 4.0, 6.0
 |5.0, 8.0, 5.0, 4.0, 23.0, 18.0, 6.0, 10.0, 11.0, 10.0, 11.0, 10.0, 9.0, 9.0, 7.0, 10.0, 6.0, 8.0, 7.0, 12.0, 15.0, 17.0, 21.0, 11.0, 7.0, 6.0, 8.0, 17.0, 13.0, 18.0, 22.0, 8.0, 5.0, 5.0, 7.0
 |10.0, 8.0, 16.0, 20.0, 24.0, 11.0, 3.0, 13.0, 8.0, 4.0, 14.0, 18.0, 14.0, 9.0, 7.0, 7.0, 4.0, 2.0, 3.0, 6.0, 11.0, 8.0, 12.0, 18.0, 16.0, 16.0, 8.0, 11.0, 17.0, 19.0, 16.0, 20.0, 15.0, 3.0, 9.0
 |11.0, 5.0, 5.0, 7.0, 19.0, 23.0, 15.0, 13.0, 9.0, 8.0, 9.0, 22.0, 17.0, 4.0, 7.0, 9.0, 8.0, 2.0, 5.0, 13.0, 12.0, 8.0, 16.0, 11.0, 13.0, 15.0, 19.0, 8.0, 29.0, 14.0, 8.0, 9.0, 18.0, 4.0, 10.0
 |5.0, 10.0, 4.0, 7.0, 7.0, 16.0, 11.0, 8.0, 9.0, 5.0, 12.0, 15.0, 11.0, 7.0, 11.0, 14.0, 21.0, 4.0, 5.0, 8.0, 13.0, 10.0, 18.0, 15.0, 12.0, 13.0, 15.0, 15.0, 22.0, 17.0, 14.0, 24.0, 15.0, 11.0, 7.0
 |9.0, 7.0, 7.0, 8.0, 7.0, 15.0, 20.0, 15.0, 8.0, 26.0, 15.0, 17.0, 13.0, 7.0, 16.0, 21.0, 12.0, 8.0, 3.0, 6.0, 11.0, 10.0, 17.0, 11.0, 11.0, 11.0, 14.0, 7.0, 18.0, 15.0, 10.0, 28.0, 21.0, 6.0, 3.0
 |14.0, 10.0, 7.0, 9.0, 13.0, 13.0, 15.0, 9.0, 22.0, 28.0, 18.0, 20.0, 13.0, 16.0, 16.0, 9.0, 13.0, 18.0, 7.0, 15.0, 2.0, 4.0, 10.0, 14.0, 15.0, 15.0, 18.0, 8.0, 12.0, 17.0, 17.0, 13.0, 8.0, 6.0, 3.0
 |9.0, 8.0, 8.0, 4.0, 8.0, 17.0, 13.0, 10.0, 15.0, 16.0, 25.0, 8.0, 14.0, 11.0, 10.0, 17.0, 11.0, 8.0, 8.0, 7.0, 9.0, 12.0, 15.0, 18.0, 12.0, 19.0, 18.0, 18.0, 6.0, 9.0, 14.0, 10.0, 11.0, 12.0, 4.0
 |10.0, 14.0, 7.0, 5.0, 5.0, 7.0, 11.0, 10.0, 20.0, 24.0, 11.0, 12.0, 12.0, 14.0, 14.0, 11.0, 15.0, 11.0, 8.0, 11.0, 14.0, 13.0, 15.0, 6.0, 11.0, 12.0, 13.0, 19.0, 9.0, 7.0, 12.0, 20.0, 18.0, 14.0, 4.0
 |9.0, 6.0, 1.0, 3.0, 5.0, 17.0, 21.0, 14.0, 11.0, 18.0, 8.0, 16.0, 8.0, 7.0, 13.0, 16.0, 22.0, 16.0, 7.0, 10.0, 15.0, 14.0, 16.0, 18.0, 12.0, 15.0, 18.0, 15.0, 10.0, 5.0, 7.0, 19.0, 11.0, 9.0, 4.0
 |10.0, 8.0, 0.0, 4.0, 10.0, 8.0, 10.0, 11.0, 7.0, 11.0, 11.0, 17.0, 15.0, 8.0, 12.0, 8.0, 8.0, 11.0, 6.0, 3.0, 7.0, 11.0, 11.0, 7.0, 23.0, 21.0, 17.0, 10.0, 15.0, 19.0, 17.0, 27.0, 13.0, 12.0, 7.0
 |18.0, 7.0, 1.0, 5.0, 7.0, 9.0, 8.0, 9.0, 6.0, 10.0, 4.0, 10.0, 8.0, 8.0, 13.0, 24.0, 22.0, 16.0, 5.0, 6.0, 9.0, 8.0, 14.0, 17.0, 17.0, 14.0, 14.0, 14.0, 14.0, 26.0, 15.0, 12.0, 12.0, 13.0, 7.0
 |12.0, 6.0, 3.0, 4.0, 9.0, 14.0, 12.0, 12.0, 8.0, 6.0, 8.0, 7.0, 7.0, 12.0, 20.0, 18.0, 22.0, 11.0, 4.0, 4.0, 12.0, 12.0, 11.0, 14.0, 15.0, 11.0, 11.0, 17.0, 18.0, 25.0, 24.0, 8.0, 9.0, 4.0, 3.0
 |10.0, 3.0, 5.0, 3.0, 10.0, 13.0, 10.0, 9.0, 11.0, 11.0, 13.0, 11.0, 8.0, 12.0, 21.0, 15.0, 29.0, 24.0, 7.0, 10.0, 5.0, 15.0, 28.0, 25.0, 25.0, 17.0, 12.0, 9.0, 14.0, 21.0, 9.0, 4.0, 10.0, 9.0, 10.0
 |3.0, 1.0, 1.0, 6.0, 13.0, 3.0, 13.0, 10.0, 13.0, 13.0, 15.0, 12.0, 4.0, 6.0, 10.0, 19.0, 25.0, 9.0, 10.0, 8.0, 9.0, 11.0, 17.0, 18.0, 24.0, 24.0, 10.0, 6.0, 14.0, 11.0, 13.0, 13.0, 7.0, 9.0, 9.0
 |2.0, 0.0, 2.0, 12.0, 15.0, 14.0, 10.0, 17.0, 28.0, 24.0, 12.0, 9.0, 13.0, 8.0, 5.0, 3.0, 7.0, 8.0, 8.0, 10.0, 10.0, 7.0, 8.0, 19.0, 15.0, 13.0, 7.0, 11.0, 11.0, 15.0, 26.0, 23.0, 3.0, 15.0, 7.0
 |0.0, 0.0, 6.0, 8.0, 6.0, 4.0, 6.0, 4.0, 12.0, 12.0, 10.0, 10.0, 13.0, 10.0, 7.0, 5.0, 1.0, 3.0, 4.0, 2.0, 2.0, 5.0, 4.0, 9.0, 6.0, 7.0, 3.0, 3.0, 10.0, 12.0, 6.0, 8.0, 23.0, 8.0, 13.0
 |0.0, 0.0, 1.0, 3.0, 3.0, 1.0, 1.0, 1.0, 1.0, 4.0, 14.0, 15.0, 12.0, 7.0, 4.0, 9.0, 6.0, 2.0, 3.0, 3.0, 1.0, 4.0, 1.0, 14.0, 9.0, 3.0, 4.0, 2.0, 3.0, 7.0, 5.0, 6.0, 8.0, 7.0, 12.0
 |0.0, 0.0, 1.0, 1.0, 1.0, 0.0, 3.0, 1.0, 2.0, 9.0, 11.0, 9.0, 7.0, 15.0, 10.0, 4.0, 9.0, 2.0, 2.0, 5.0, 10.0, 1.0, 2.0, 9.0, 10.0, 14.0, 3.0, 10.0, 13.0, 0.0, 1.0, 1.0, 7.0, 8.0, 11.0
 |];
num_trees = [| 1.0, 1.0, 25.0, 18.0, 7.0, 1.0, 1.0, 1.0, 1.0, 1.0, 1.0, 1.0, 1.0, 1.0, 1.0, 1.0, 1.0, 1.0, 1.0, 1.0, 1.0, 1.0, 1.0, 1.0, 1.0, 1.0, 1.0, 1.0, 1.0, 1.0, 1.0, 1.0, 1.0, 1.0, 1.0
 |11.0, 8.0, 19.0, 2.0, 18.0, 1.0, 1.0, 1.0, 1.0, 1.0, 1.0, 1.0, 1.0, 1.0, 1.0, 1.0, 1.0, 1.0, 1.0, 1.0, 1.0, 1.0, 1.0, 1.0, 1.0, 1.0, 1.0, 1.0, 1.0, 1.0, 1.0, 1.0, 1.0, 1.0, 1.0
 |1.0, 9.0, 20.0, 16.0, 31.0, 7.0, 1.0, 1.0, 1.0, 1.0, 1.0, 1.0, 2.0, 4.0, 1.0, 1.0, 1.0, 1.0, 7.0, 1.0, 2.0, 1.0, 1.0, 1.0, 1.0, 1.0, 1.0, 1.0, 1.0, 1.0, 1.0, 1.0, 1.0, 1.0, 1.0
 |18.0, 20.0, 1.0, 1.0, 20.0, 4.0, 5.0, 2.0, 5.0, 9.0, 2.0, 1.0, 1.0, 1.0, 1.0, 1.0, 6.0, 2.0, 1.0, 1.0, 1.0, 1.0, 1.0, 1.0, 1.0, 1.0, 11.0, 7.0, 1.0, 1.0, 1.0, 1.0, 1.0, 1.0, 1.0
 |10.0, 11.0, 20.0, 23.0, 20.0, 10.0, 1.0, 2.0, 2.0, 1.0, 8.0, 3.0, 1.0, 1.0, 1.0, 27.0, 25.0, 1.0, 1.0, 1.0, 1.0, 1.0, 1.0, 1.0, 1.0, 1.0, 5.0, 7.0, 2.0, 1.0, 1.0, 1.0, 1.0, 1.0, 1.0
 |17.0, 6.0, 1.0, 1.0, 1.0, 9.0, 1.0, 1.0, 10.0, 3.0, 1.0, 1.0, 1.0, 1.0, 1.0, 4.0, 1.0, 1.0, 1.0, 1.0, 1.0, 23.0, 29.0, 1.0, 4.0, 1.0, 1.0, 1.0, 2.0, 2.0, 1.0, 1.0, 1.0, 1.0, 1.0
 |21.0, 8.0, 16.0, 8.0, 1.0, 1.0, 1.0, 1.0, 7.0, 4.0, 1.0, 1.0, 1.0, 5.0, 1.0, 1.0, 1.0, 1.0, 1.0, 3.0, 1.0, 1.0, 1.0, 1.0, 1.0, 2.0, 5.0, 1.0, 1.0, 1.0, 1.0, 1.0, 1.0, 1.0, 1.0
 |11.0, 1.0, 1.0, 1.0, 1.0, 1.0, 1.0, 1.0, 1.0, 1.0, 1.0, 1.0, 1.0, 14.0, 1.0, 3.0, 10.0, 1.0, 1.0, 4.0, 1.0, 1.0, 1.0, 1.0, 1.0, 1.0, 1.0, 1.0, 1.0, 1.0, 1.0, 1.0, 1.0, 1.0, 1.0
 |1.0, 1.0, 1.0, 1.0, 4.0, 2.0, 5.0, 8.0, 1.0, 1.0, 1.0, 1.0, 1.0, 1.0, 1.0, 1.0, 1.0, 6.0, 2.0, 1.0, 1.0, 1.0, 1.0, 1.0, 1.0, 1.0, 1.0, 1.0, 1.0, 1.0, 1.0, 1.0, 1.0, 1.0, 1.0
 |1.0, 1.0, 4.0, 5.0, 1.0, 1.0, 1.0, 1.0, 1.0, 1.0, 1.0, 1.0, 1.0, 1.0, 1.0, 1.0, 1.0, 1.0, 1.0, 1.0, 1.0, 1.0, 1.0, 1.0, 1.0, 1.0, 1.0, 6.0, 7.0, 1.0, 1.0, 1.0, 1.0, 1.0, 1.0
 |1.0, 1.0, 1.0, 1.0, 1.0, 1.0, 1.0, 1.0, 1.0, 1.0, 1.0, 1.0, 1.0, 1.0, 1.0, 1.0, 1.0, 1.0, 1.0, 16.0, 13.0, 1.0, 1.0, 1.0, 1.0, 1.0, 1.0, 3.0, 14.0, 17.0, 15.0, 5.0, 1.0, 1.0, 1.0
 |1.0, 1.0, 1.0, 1.0, 1.0, 1.0, 1.0, 1.0, 1.0, 1.0, 1.0, 1.0, 1.0, 1.0, 1.0, 1.0, 1.0, 1.0, 1.0, 1.0, 1.0, 1.0, 1.0, 1.0, 1.0, 1.0, 1.0, 1.0, 1.0, 1.0, 3.0, 13.0, 5.0, 14.0, 16.0
 |1.0, 1.0, 1.0, 1.0, 1.0, 1.0, 1.0, 1.0, 1.0, 1.0, 1.0, 1.0, 1.0, 1.0, 1.0, 1.0, 1.0, 1.0, 1.0, 1.0, 1.0, 1.0, 1.0, 1.0, 1.0, 1.0, 1.0, 1.0, 1.0, 5.0, 1.0, 1.0, 1.0, 1.0, 4.0
 |1.0, 1.0, 1.0, 1.0, 1.0, 1.0, 1.0, 1.0, 1.0, 1.0, 1.0, 1.0, 1.0, 1.0, 1.0, 1.0, 1.0, 1.0, 1.0, 1.0, 1.0, 3.0, 1.0, 1.0, 1.0, 1.0, 1.0, 1.0, 1.0, 1.0, 1.0, 1.0, 1.0, 1.0, 1.0
 |1.0, 1.0, 1.0, 1.0, 1.0, 1.0, 1.0, 1.0, 1.0, 1.0, 1.0, 1.0, 1.0, 1.0, 1.0, 1.0, 1.0, 1.0, 1.0, 1.0, 1.0, 2.0, 1.0, 1.0, 1.0, 1.0, 1.0, 1.0, 1.0, 1.0, 1.0, 1.0, 1.0, 1.0, 1.0
 |1.0, 1.0, 1.0, 1.0, 1.0, 1.0, 1.0, 1.0, 1.0, 1.0, 1.0, 1.0, 1.0, 1.0, 1.0, 1.0, 1.0, 1.0, 1.0, 1.0, 1.0, 1.0, 1.0, 1.0, 1.0, 1.0, 1.0, 1.0, 1.0, 1.0, 1.0, 1.0, 1.0, 1.0, 1.0
 |1.0, 1.0, 1.0, 1.0, 1.0, 1.0, 1.0, 1.0, 9.0, 2.0, 9.0, 1.0, 1.0, 1.0, 1.0, 1.0, 1.0, 1.0, 1.0, 1.0, 1.0, 1.0, 1.0, 1.0, 1.0, 1.0, 1.0, 1.0, 1.0, 1.0, 1.0, 2.0, 1.0, 1.0, 10.0
 |1.0, 1.0, 1.0, 1.0, 1.0, 1.0, 1.0, 1.0, 1.0, 1.0, 4.0, 1.0, 1.0, 1.0, 1.0, 1.0, 1.0, 1.0, 1.0, 3.0, 1.0, 1.0, 1.0, 1.0, 1.0, 1.0, 1.0, 1.0, 1.0, 1.0, 1.0, 1.0, 1.0, 7.0, 3.0
 |14.0, 11.0, 1.0, 1.0, 1.0, 1.0, 1.0, 1.0, 1.0, 1.0, 4.0, 1.0, 1.0, 1.0, 1.0, 1.0, 1.0, 1.0, 1.0, 5.0, 4.0, 1.0, 1.0, 1.0, 1.0, 1.0, 1.0, 10.0, 1.0, 1.0, 1.0, 1.0, 1.0, 7.0, 1.0
 |4.0, 1.0, 1.0, 1.0, 1.0, 1.0, 1.0, 1.0, 1.0, 1.0, 1.0, 1.0, 1.0, 1.0, 1.0, 12.0, 1.0, 1.0, 1.0, 1.0, 1.0, 1.0, 1.0, 1.0, 1.0, 1.0, 1.0, 5.0, 1.0, 1.0, 1.0, 1.0, 1.0, 1.0, 1.0
 |14.0, 7.0, 4.0, 1.0, 1.0, 1.0, 1.0, 1.0, 1.0, 1.0, 1.0, 1.0, 1.0, 1.0, 1.0, 1.0, 1.0, 1.0, 1.0, 1.0, 1.0, 1.0, 1.0, 1.0, 1.0, 1.0, 1.0, 1.0, 1.0, 1.0, 1.0, 1.0, 1.0, 1.0, 1.0
 |19.0, 8.0, 1.0, 1.0, 1.0, 1.0, 1.0, 1.0, 1.0, 1.0, 1.0, 1.0, 1.0, 1.0, 1.0, 1.0, 1.0, 1.0, 1.0, 1.0, 1.0, 1.0, 1.0, 3.0, 3.0, 1.0, 1.0, 1.0, 1.0, 1.0, 1.0, 1.0, 1.0, 1.0, 1.0
 |24.0, 1.0, 1.0, 10.0, 1.0, 1.0, 1.0, 1.0, 1.0, 1.0, 1.0, 1.0, 1.0, 1.0, 1.0, 1.0, 1.0, 1.0, 1.0, 7.0, 5.0, 1.0, 1.0, 1.0, 3.0, 1.0, 1.0, 1.0, 1.0, 1.0, 1.0, 1.0, 1.0, 2.0, 1.0
 |11.0, 1.0, 1.0, 1.0, 1.0, 1.0, 1.0, 1.0, 1.0, 1.0, 1.0, 1.0, 1.0, 1.0, 1.0, 1.0, 1.0, 1.0, 7.0, 7.0, 1.0, 1.0, 1.0, 1.0, 1.0, 1.0, 1.0, 1.0, 1.0, 1.0, 1.0, 1.0, 1.0, 8.0, 1.0
 |7.0, 14.0, 7.0, 1.0, 1.0, 1.0, 1.0, 7.0, 1.0, 1.0, 1.0, 1.0, 1.0, 1.0, 1.0, 1.0, 1.0, 1.0, 14.0, 10.0, 1.0, 1.0, 1.0, 1.0, 1.0, 1.0, 1.0, 1.0, 1.0, 1.0, 1.0, 1.0, 1.0, 1.0, 1.0
 |15.0, 22.0, 1.0, 1.0, 1.0, 1.0, 1.0, 6.0, 1.0, 1.0, 1.0, 1.0, 1.0, 1.0, 1.0, 1.0, 1.0, 2.0, 20.0, 1.0, 1.0, 1.0, 1.0, 1.0, 1.0, 1.0, 1.0, 1.0, 1.0, 1.0, 1.0, 1.0, 1.0, 1.0, 1.0
 |5.0, 22.0, 1.0, 1.0, 1.0, 1.0, 1.0, 1.0, 1.0, 1.0, 1.0, 1.0, 10.0, 12.0, 3.0, 1.0, 1.0, 1.0, 3.0, 1.0, 1.0, 1.0, 1.0, 1.0, 1.0, 1.0, 1.0, 1.0, 1.0, 1.0, 1.0, 1.0, 1.0, 5.0, 1.0
 |1.0, 2.0, 1.0, 1.0, 1.0, 1.0, 1.0, 1.0, 1.0, 1.0, 1.0, 1.0, 1.0, 1.0, 1.0, 1.0, 1.0, 1.0, 7.0, 11.0, 5.0, 1.0, 1.0, 1.0, 1.0, 1.0, 1.0, 1.0, 1.0, 1.0, 1.0, 1.0, 1.0, 7.0, 1.0
 |1.0, 1.0, 1.0, 1.0, 1.0, 1.0, 1.0, 1.0, 1.0, 1.0, 1.0, 1.0, 9.0, 1.0, 1.0, 1.0, 1.0, 1.0, 1.0, 15.0, 6.0, 1.0, 1.0, 1.0, 1.0, 1.0, 1.0, 1.0, 1.0, 1.0, 11.0, 9.0, 22.0, 9.0, 5.0
 |1.0, 1.0, 1.0, 1.0, 1.0, 1.0, 1.0, 1.0, 1.0, 1.0, 1.0, 1.0, 17.0, 39.0, 8.0, 1.0, 1.0, 5.0, 5.0, 7.0, 20.0, 1.0, 1.0, 1.0, 1.0, 1.0, 1.0, 1.0, 1.0, 1.0, 9.0, 9.0, 1.0, 1.0, 1.0
 |1.0, 1.0, 1.0, 1.0, 1.0, 1.0, 1.0, 1.0, 1.0, 1.0, 1.0, 1.0, 1.0, 1.0, 1.0, 1.0, 1.0, 5.0, 1.0, 1.0, 12.0, 17.0, 11.0, 1.0, 1.0, 1.0, 1.0, 1.0, 1.0, 1.0, 1.0, 1.0, 1.0, 1.0, 4.0
 |1.0, 1.0, 1.0, 1.0, 1.0, 1.0, 1.0, 1.0, 1.0, 1.0, 1.0, 1.0, 3.0, 4.0, 1.0, 1.0, 1.0, 1.0, 1.0, 1.0, 1.0, 1.0, 6.0, 2.0, 1.0, 1.0, 1.0, 1.0, 1.0, 1.0, 1.0, 1.0, 1.0, 8.0, 9.0
 |1.0, 1.0, 1.0, 1.0, 1.0, 1.0, 1.0, 1.0, 1.0, 1.0, 1.0, 10.0, 4.0, 2.0, 5.0, 1.0, 1.0, 1.0, 1.0, 1.0, 1.0, 1.0, 1.0, 1.0, 9.0, 1.0, 1.0, 1.0, 1.0, 1.0, 1.0, 1.0, 1.0, 9.0, 1.0
 |1.0, 1.0, 1.0, 1.0, 1.0, 1.0, 1.0, 1.0, 1.0, 1.0, 1.0, 1.0, 1.0, 1.0, 24.0, 30.0, 1.0, 1.0, 1.0, 1.0, 1.0, 1.0, 1.0, 1.0, 1.0, 1.0, 1.0, 1.0, 1.0, 1.0, 1.0, 1.0, 1.0, 1.0, 1.0
 |];
densities = [| 154.04410685768514, 154.04410685768514, 4550.401685865239, 8459.43345486984, 8459.43345486984, 8459.43345486984, 8459.43345486984, 8459.43345486984, 8459.43345486984, 8459.43345486984, 8459.43345486984, 8459.43345486984, 8653.116484660057, 9643.803238859653, 10042.6106559624, 10042.6106559624, 10042.6106559624, 10042.6106559624, 10042.6106559624, 10042.6106559624, 9241.225036394695, 6702.106076490854, 7253.369594237583, 8079.808118371773, 8983.774567487617, 9860.843265299227, 10030.658980101864, 10030.658980101864, 10030.658980101864, 10030.658980101864, 9326.096484460386, 8814.077028992178, 8814.077028992178, 8814.077028992178, 8814.077028992178
 |855.8973879529844, 154.04410685768514, 6398.580642769261, 8459.43345486984, 8459.43345486984, 8459.43345486984, 8459.43345486984, 8459.43345486984, 8459.43345486984, 8459.43345486984, 8459.43345486984, 9006.992044338094, 9936.874379826813, 10042.6106559624, 10042.6106559624, 10042.6106559624, 10042.6106559624, 10042.6106559624, 10042.6106559624, 10042.6106559624, 8507.311201090455, 6683.083962240825, 6683.083962240825, 6683.083962240825, 6683.083962240825, 6761.754859685753, 7355.266158330422, 8190.68967372894, 9452.586936953303, 10010.244367871446, 8916.842180062875, 8814.077028992178, 8814.077028992178, 8814.077028992178, 8814.077028992178
 |8435.508892052298, 7188.297956358378, 8268.820110297831, 8459.43345486984, 8459.43345486984, 8459.43345486984, 8459.43345486984, 8459.43345486984, 8459.43345486984, 8558.472515001959, 9489.794023615354, 10042.571076547823, 10042.6106559624, 10042.6106559624, 10042.6106559624, 10042.6106559624, 10042.6106559624, 10042.6106559624, 10042.6106559624, 10042.6106559624, 7815.507277871554, 6683.083962240825, 6683.083962240825, 6683.083962240825, 6683.083962240825, 6683.083962240825, 6683.083962240825, 6683.083962240825, 6695.189603459248, 7663.323097644073, 8524.050352084134, 8814.077028992178, 8814.077028992178, 8814.077028992178, 8814.077028992178
 |8459.43345486984, 8459.43345486984, 8459.43345486984, 8459.43345486984, 8459.43345486984, 8459.43345486984, 8459.43345486984, 8459.43345486984, 8832.477622273615, 9848.724327731377, 10042.6106559624, 10042.6106559624, 10042.6106559624, 10042.6106559624, 10042.6106559624, 10042.6106559624, 10042.6106559624, 10042.6106559624, 10042.6106559624, 10042.6106559624, 7156.320473862241, 6683.083962240825, 6683.083962240825, 6683.083962240825, 6683.083962240825, 6683.083962240825, 6683.083962240825, 6683.083962240825, 6683.083962240825, 6683.083962240825, 6738.453676899621, 7643.014601001322, 8675.49630504501, 8814.077028992178, 8814.077028992178
 |8459.43345486984, 8459.43345486984, 8459.43345486984, 8459.43345486984, 8459.43345486984, 8459.43345486984, 8508.46624487706, 9311.792880108538, 10025.03730990546, 10042.6106559624, 10042.6106559624, 10042.6106559624, 10042.6106559624, 10042.6106559624, 10042.6106559624, 10042.6106559624, 10042.6106559624, 10042.6106559624, 10042.6106559624, 9840.34782819588, 6699.069288299243, 6683.083962240825, 6683.083962240825, 6683.083962240825, 6683.083962240825, 6683.083962240825, 6683.083962240825, 6683.083962240825, 6683.083962240825, 6683.083962240825, 6683.083962240825, 6683.083962240825, 6842.978198740904, 7896.757750543609, 8770.66732646897
 |8459.43345486984, 8459.43345486984, 8459.43345486984, 8459.43345486984, 8459.43345486984, 8685.938819555939, 9716.870948053156, 10042.6106559624, 10042.6106559624, 10042.6106559624, 10042.6106559624, 10042.6106559624, 10042.6106559624, 10042.6106559624, 10042.6106559624, 10042.6106559624, 10042.6106559624, 10042.6106559624, 10042.6106559624, 9166.931659567857, 6683.083962240825, 6683.083962240825, 6683.083962240825, 6683.083962240825, 6683.083962240825, 6683.083962240825, 6683.083962240825, 6683.083962240825, 6683.083962240825, 6683.083962240825, 6683.083962240825, 6683.083962240825, 6683.083962240825, 6683.083962240825, 7054.964567690941
 |8459.43345486984, 8459.43345486984, 8459.43345486984, 8461.791449007704, 9082.589004525775, 9968.887743543533, 10042.6106559624, 10042.6106559624, 10042.6106559624, 10042.6106559624, 10042.6106559624, 10042.6106559624, 10042.6106559624, 10042.6106559624, 10042.6106559624, 10042.6106559624, 10042.6106559624, 10042.6106559624, 10042.6106559624, 8436.78863281899, 6683.083962240825, 6683.083962240825, 6683.083962240825, 6683.083962240825, 6683.083962240825, 6683.083962240825, 6683.083962240825, 6683.083962240825, 6683.083962240825, 6683.083962240825, 6683.083962240825, 6683.083962240825, 6683.083962240825, 6832.654981669058, 7100.786618560634
 |8459.43345486984, 8459.43345486984, 8588.032536411332, 9557.860969165215, 10042.6106559624, 10042.6106559624, 10042.6106559624, 10042.6106559624, 10042.6106559624, 10042.6106559624, 10042.6106559624, 10042.6106559624, 10042.6106559624, 10042.6106559624, 10042.6106559624, 10042.6106559624, 10042.6106559624, 10042.6106559624, 10042.6106559624, 7711.286959650375, 6683.083962240825, 6683.083962240825, 6683.083962240825, 6683.083962240825, 6683.083962240825, 6683.083962240825, 6683.083962240825, 6683.083962240825, 6683.083962240825, 6683.083962240825, 6683.083962240825, 6683.083962240825, 6817.610094254001, 7128.688606808679, 7129.108878567159
 |8459.43345486984, 8895.157068041268, 9888.128597922578, 10042.6106559624, 10042.6106559624, 10042.6106559624, 10042.6106559624, 10042.6106559624, 10042.6106559624, 10042.6106559624, 10042.6106559624, 10042.6106559624, 10042.6106559624, 10042.6106559624, 10042.6106559624, 10042.6106559624, 10042.6106559624, 10042.6106559624, 10042.221205121201, 7010.779808531392, 6683.083962240825, 6683.083962240825, 6683.083962240825, 6683.083962240825, 6683.083962240825, 6683.083962240825, 6683.083962240825, 6683.083962240825, 6683.083962240825, 6683.083962240825, 6683.083962240825, 6683.083962240825, 6808.548199933592, 7129.108878567159, 7129.108878567159
 |9369.416735139795, 10034.228235868675, 10042.6106559624, 10042.6106559624, 10042.6106559624, 10042.6106559624, 10042.6106559624, 10042.6106559624, 10042.6106559624, 10042.6106559624, 10042.6106559624, 10042.6106559624, 10042.6106559624, 10042.6106559624, 10042.6106559624, 10042.6106559624, 10042.6106559624, 10042.6106559624, 9674.000630519067, 6683.083962240825, 6683.083962240825, 6683.083962240825, 6683.083962240825, 6683.083962240825, 6683.083962240825, 6683.083962240825, 6683.083962240825, 6683.083962240825, 6683.083962240825, 6683.083962240825, 6683.083962240825, 6683.083962240825, 6772.683922875322, 7129.108878567159, 7129.108878567159
 |9297.540723904254, 9654.340092833654, 10021.079650914482, 10042.6106559624, 10042.6106559624, 10042.6106559624, 10042.6106559624, 10042.6106559624, 10042.6106559624, 10042.6106559624, 10042.6106559624, 10042.6106559624, 9950.347580228796, 9698.281778559598, 9770.906363940418, 9832.594237929741, 9850.013644010796, 9635.366530952542, 9146.1429695719, 7906.276619909562, 7477.588563889641, 6824.563084376021, 6683.083962240825, 6683.083962240825, 6683.083962240825, 6683.083962240825, 6683.083962240825, 6683.083962240825, 6683.083962240825, 6683.083962240825, 6683.083962240825, 6683.083962240825, 6732.467526783258, 7129.108878567159, 7129.108878567159
 |8903.853118105586, 9048.88262163692, 9169.174702782746, 9645.027710976232, 10021.63552543772, 10042.6106559624, 10042.6106559624, 10042.6106559624, 10042.6106559624, 10042.6106559624, 10042.6106559624, 10042.6106559624, 9734.592418542858, 9447.14000638797, 9447.14000638797, 9447.14000638797, 9447.14000638797, 9447.14000638797, 8909.69609348419, 8429.796499250993, 8429.796499250993, 8344.060646093016, 7541.527004999566, 6712.278245835516, 6683.083962240825, 6683.083962240825, 6683.083962240825, 6683.083962240825, 6683.083962240825, 6683.083962240825, 6683.083962240825, 6683.083962240825, 6684.160893479929, 7119.627321153349, 7129.108878567159
 |8772.568214656818, 9048.88262163692, 9048.88262163692, 9048.88262163692, 9174.200098558453, 9639.698252122187, 10015.832305371538, 10042.6106559624, 10042.6106559624, 10042.6106559624, 10042.6106559624, 10042.434423491393, 9538.513013565605, 9447.14000638797, 9447.14000638797, 9447.14000638797, 9447.14000638797, 9447.14000638797, 8699.43203558751, 8429.796499250993, 8429.796499250993, 8429.796499250993, 8429.796499250993, 7997.5949116794645, 6755.02265242976, 6683.083962240825, 6683.083962240825, 6683.083962240825, 6683.083962240825, 6683.083962240825, 6683.083962240825, 6683.083962240825, 6683.083962240825, 7100.223840061946, 7129.108878567159
 |7696.0172355128125, 9048.88262163692, 9048.88262163692, 9048.88262163692, 9048.88262163692, 9048.88262163692, 9156.68887326346, 9615.621196674774, 10009.734788853712, 10042.6106559624, 10042.6106559624, 9932.763493349537, 9447.14000638797, 9447.14000638797, 9447.14000638797, 9447.14000638797, 9447.14000638797, 9439.259943271984, 8489.53700324056, 8429.796499250993, 8429.796499250993, 8429.796499250993, 8429.796499250993, 8429.796499250993, 7903.876652746761, 6765.244434286661, 6683.083962240825, 6683.083962240825, 6683.083962240825, 6683.083962240825, 6683.083962240825, 6683.083962240825, 6683.083962240825, 7065.5018522390765, 7129.108878567159
 |6395.499409265785, 9035.221120035789, 9048.88262163692, 9048.88262163692, 9048.88262163692, 9048.88262163692, 9048.88262163692, 9048.88262163692, 9148.479046500508, 9593.013836871449, 9994.735679860069, 9731.053937942026, 9447.14000638797, 9447.14000638797, 9447.14000638797, 9447.14000638797, 9447.14000638797, 9282.058408603885, 8429.796499250993, 8429.796499250993, 8429.796499250993, 8429.796499250993, 8429.796499250993, 8429.796499250993, 8429.796499250993, 8038.822695648214, 6695.51567187842, 6683.083962240825, 6683.083962240825, 6683.083962240825, 6683.083962240825, 6683.083962240825, 6683.083962240825, 7030.723296343045, 7129.108878567159
 |6196.031328740634, 8603.832875326101, 9048.88262163692, 9048.88262163692, 9048.88262163692, 9048.88262163692, 9048.88262163692, 9048.88262163692, 9048.88262163692, 9048.88262163692, 9120.158423917183, 8263.084805667126, 8742.946558743348, 9251.287121910022, 9447.14000638797, 9447.14000638797, 9447.14000638797, 9086.669122123427, 8429.796499250993, 8429.796499250993, 8429.796499250993, 8429.796499250993, 8429.796499250993, 8429.796499250993, 8429.796499250993, 8423.792624199099, 7748.088936608046, 6683.113849599477, 6683.083962240825, 6683.083962240825, 6683.083962240825, 6683.083962240825, 6683.083962240825, 6995.790330091078, 7129.108878567159
 |6196.031328740634, 7946.749533700788, 9048.88262163692, 9048.88262163692, 9048.88262163692, 9048.88262163692, 9048.88262163692, 9048.88262163692, 9048.88262163692, 9048.88262163692, 8729.786884127097, 7030.406603804736, 7030.406603804736, 7034.475963998583, 7343.97456197775, 7845.908474487293, 8389.126506254355, 8462.085228850097, 8426.462711880715, 8429.796499250993, 8429.796499250993, 8429.796499250993, 8429.796499250993, 8429.796499250993, 8429.796499250993, 8429.796499250993, 8429.796499250993, 7359.235197965364, 6683.083962240825, 6683.083962240825, 6683.083962240825, 6683.083962240825, 6683.083962240825, 6960.780544214121, 7129.108878567159
 |6196.031328740634, 7282.807715660347, 9048.88262163692, 9048.88262163692, 9048.88262163692, 9048.88262163692, 9048.88262163692, 9048.88262163692, 9048.88262163692, 9048.88262163692, 8168.602480967746, 7030.406603804736, 7030.406603804736, 7030.406603804736, 7030.406603804736, 7030.406603804736, 7030.406603804736, 6278.619663979846, 6079.056457146392, 6631.758668363757, 7193.975368211782, 7864.465439945209, 8429.796499250993, 8429.796499250993, 8429.796499250993, 8429.796499250993, 8429.796499250993, 8207.236554534102, 6683.083962240825, 6683.083962240825, 6683.083962240825, 6683.083962240825, 6683.083962240825, 6916.048832213884, 7129.108878567159
 |6196.031328740634, 6623.224876545696, 9048.88262163692, 9048.88262163692, 9048.88262163692, 9048.88262163692, 9048.88262163692, 9048.88262163692, 9048.88262163692, 9048.88262163692, 7544.046539612457, 7030.406603804736, 7030.406603804736, 7030.406603804736, 7030.406603804736, 7030.406603804736, 7030.406603804736, 6290.54274774494, 5856.714748930233, 5856.714748930233, 5856.714748930233, 5861.305602099721, 6617.068023100365, 7941.4205369078845, 8429.796499250993, 8429.796499250993, 8429.796499250993, 7966.075196302937, 6683.083962240825, 6683.083962240825, 6683.083962240825, 6683.083962240825, 6683.083962240825, 4506.6053181408915, 2916.418005594628
 |6196.031328740634, 6204.52535168849, 8824.687666669031, 9048.88262163692, 9048.88262163692, 9048.88262163692, 9048.88262163692, 9048.88262163692, 9048.88262163692, 9012.245366044182, 7441.708590399544, 7030.406603804736, 7030.406603804736, 7030.406603804736, 7030.406603804736, 7030.406603804736, 6934.802441748263, 5861.573296430682, 5856.714748930233, 5856.714748930233, 5856.714748930233, 5856.714748930233, 5856.714748930233, 5874.322222049557, 6806.3076278449, 8130.60270044252, 8429.796499250993, 7738.873318289223, 6683.083962240825, 6683.083962240825, 6683.083962240825, 6683.083962240825, 6683.083962240825, 4265.279046020238, 242.95981176512694
 |6196.031328740634, 6196.031328740634, 8194.062513198545, 9048.88262163692, 9048.88262163692, 9048.88262163692, 9048.88262163692, 9048.88262163692, 9048.88262163692, 9048.88262163692, 8995.633022498845, 7798.721113574087, 7031.79918245098, 7030.406603804736, 7030.406603804736, 7030.406603804736, 6698.836699170915, 5856.714748930233, 5856.714748930233, 5856.714748930233, 5856.714748930233, 5856.714748930233, 5856.714748930233, 5856.714748930233, 5856.714748930233, 5931.159736721492, 6950.526700893464, 7332.148940925321, 6683.083962240825, 6683.083962240825, 6683.083962240825, 6683.083962240825, 6683.083962240825, 4799.1798788386795, 242.95981176512694
 |6196.031328740634, 6196.031328740634, 7577.977924105845, 9048.88262163692, 9048.88262163692, 9048.88262163692, 9048.88262163692, 9048.88262163692, 9048.88262163692, 9048.88262163692, 9048.88262163692, 9048.88262163692, 8253.623655675894, 7180.507033702712, 7030.406603804736, 7030.406603804736, 6504.496896782162, 5856.714748930233, 5856.714748930233, 5856.714748930233, 5856.714748930233, 5856.714748930233, 5856.714748930233, 5856.714748930233, 5856.714748930233, 5856.714748930233, 5856.714748930233, 7863.876387549257, 7849.674326977098, 6801.336791937634, 6683.083962240825, 6683.083962240825, 6683.083962240825, 5322.920008011927, 242.95981176512694
 |6196.031328740634, 6196.031328740634, 6953.601709906927, 9048.88262163692, 9048.88262163692, 9048.88262163692, 9048.88262163692, 9048.88262163692, 9048.88262163692, 9048.88262163692, 9048.88262163692, 9048.88262163692, 9048.88262163692, 9009.463335392767, 8509.030558973509, 8293.656748871816, 8057.980553940266, 7983.874301840542, 8153.378116843977, 8334.831596062715, 8573.20682656158, 8667.710535647931, 8565.184471756056, 8206.933314437852, 7021.4802298017175, 5856.714748930233, 6030.613866996242, 8779.591470618136, 8890.553464881285, 8688.75565298738, 7614.776852831756, 6739.541765302727, 6683.083962240825, 5825.925684437466, 242.95981176512694
 |6196.031328740634, 6196.031328740634, 6521.348777910221, 9048.88262163692, 9048.88262163692, 9048.88262163692, 9048.88262163692, 9048.88262163692, 9048.88262163692, 9048.88262163692, 9048.88262163692, 9048.88262163692, 9048.88262163692, 9048.88262163692, 9048.88262163692, 9045.462546008685, 8905.78731901098, 8890.553464881285, 8890.553464881285, 8890.553464881285, 8890.553464881285, 8890.553464881285, 8890.553464881285, 8890.553464881285, 8873.897885325701, 6741.048926132708, 7223.156990016414, 8890.553464881285, 8890.553464881285, 8890.553464881285, 8890.553464881285, 8610.556223752641, 7465.83129347285, 6464.2123885361625, 3914.7843669408458
 |6196.031328740634, 6196.031328740634, 6211.01258373223, 6713.8692527091325, 8557.799766378728, 9048.88262163692, 9048.88262163692, 9048.88262163692, 9048.88262163692, 9048.88262163692, 9048.88262163692, 9048.88262163692, 9048.88262163692, 9048.88262163692, 9048.88262163692, 8994.026536066578, 8890.553464881285, 8890.553464881285, 8890.553464881285, 8890.553464881285, 8890.553464881285, 8890.553464881285, 8890.553464881285, 8890.553464881285, 8890.553464881285, 8643.371598220574, 8619.050316514667, 8890.553464881285, 8890.553464881285, 8890.553464881285, 8890.553464881285, 8890.553464881285, 8890.553464881285, 8688.612920375885, 7574.290818197456
 |6196.031328740634, 6196.031328740634, 6196.031328740634, 4038.423037177931, 3067.161985090236, 5673.495448993069, 8608.169857824785, 9048.88262163692, 9048.88262163692, 9048.88262163692, 9048.88262163692, 9048.88262163692, 9048.88262163692, 9048.88262163692, 9047.390992471448, 8916.638583873488, 8890.553464881285, 8890.553464881285, 8890.553464881285, 8890.553464881285, 8890.553464881285, 8890.553464881285, 8890.553464881285, 8890.553464881285, 8890.553464881285, 8890.553464881285, 8890.553464881285, 8890.553464881285, 8890.553464881285, 8890.553464881285, 8890.553464881285, 8890.553464881285, 8890.553464881285, 8890.553464881285, 7647.300949876462
 |6196.031328740634, 4546.075073119227, 3837.8657025121615, 3408.3223515281766, 2783.931149597261, 2783.931149597261, 3193.92738965998, 6114.507221837786, 8818.081916029236, 9048.88262163692, 9048.88262163692, 9048.88262163692, 9048.88262163692, 9048.88262163692, 8973.718382823883, 8890.553464881285, 8890.553464881285, 8890.553464881285, 8890.553464881285, 8890.553464881285, 8890.553464881285, 8890.553464881285, 8890.553464881285, 8890.553464881285, 8890.553464881285, 8890.553464881285, 8890.553464881285, 8890.553464881285, 8890.553464881285, 8890.553464881285, 8890.553464881285, 8890.553464881285, 8890.553464881285, 8890.553464881285, 7766.533833796672
 |4667.923216908287, 3011.5171856909083, 2783.931149597261, 2783.931149597261, 2783.931149597261, 2783.931149597261, 2783.931149597261, 2783.931149597261, 3469.154064040041, 6635.711754545647, 8973.172515267577, 9048.88262163692, 9048.88262163692, 9048.88262163692, 8921.043652463663, 8890.553464881285, 8890.553464881285, 8890.553464881285, 8890.553464881285, 8890.553464881285, 8890.553464881285, 8890.553464881285, 8890.553464881285, 8890.553464881285, 8890.553464881285, 8890.553464881285, 8890.553464881285, 8890.553464881285, 8890.553464881285, 8890.553464881285, 8890.553464881285, 8890.553464881285, 8890.553464881285, 8890.553464881285, 7888.790117490551
 |2852.3778782838153, 2783.931149597261, 2783.931149597261, 2783.931149597261, 2783.931149597261, 2783.931149597261, 2783.931149597261, 2783.931149597261, 2783.931149597261, 2783.931149597261, 3823.6999798999486, 7112.766937299265, 9040.792321204719, 9048.88262163692, 8909.645954298758, 8890.553464881285, 8890.553464881285, 8890.553464881285, 8890.553464881285, 8890.553464881285, 8890.553464881285, 8890.553464881285, 8890.553464881285, 8890.553464881285, 8890.553464881285, 8890.553464881285, 8890.553464881285, 8890.553464881285, 8890.553464881285, 8890.553464881285, 8890.553464881285, 8890.553464881285, 8890.553464881285, 8890.553464881285, 8006.366955762278
 |2783.931149597261, 2783.931149597261, 2783.931149597261, 2783.931149597261, 2783.931149597261, 2783.931149597261, 2783.931149597261, 2783.931149597261, 2783.931149597261, 2783.931149597261, 2783.931149597261, 2783.931149597261, 4267.482965112958, 7654.877304106927, 8901.952986255117, 8890.553464881285, 8890.553464881285, 8890.553464881285, 8890.553464881285, 8890.553464881285, 8890.553464881285, 8890.553464881285, 8890.553464881285, 8890.553464881285, 8890.553464881285, 8890.553464881285, 8890.553464881285, 8890.553464881285, 8890.553464881285, 8890.553464881285, 8890.553464881285, 8890.553464881285, 8890.553464881285, 8890.553464881285, 8121.013359908482
 |2783.931149597261, 2783.931149597261, 2783.931149597261, 2783.931149597261, 2783.931149597261, 2783.931149597261, 2783.931149597261, 2783.931149597261, 2783.931149597261, 2783.931149597261, 2783.931149597261, 2783.931149597261, 2783.931149597261, 2769.765691229504, 2582.422212304906, 3808.716853817759, 5016.026072326884, 6149.397080163137, 7318.679798149098, 8481.659620429158, 8890.553464881285, 8890.553464881285, 8890.553464881285, 8890.553464881285, 8890.553464881285, 8890.553464881285, 8890.553464881285, 8890.553464881285, 8890.553464881285, 8890.553464881285, 8890.553464881285, 8890.553464881285, 8890.553464881285, 8890.553464881285, 8245.217088560132
 |2783.931149597261, 2783.931149597261, 2783.931149597261, 2783.931149597261, 2783.931149597261, 2783.931149597261, 2783.931149597261, 2783.931149597261, 2783.931149597261, 2783.931149597261, 2783.931149597261, 2783.931149597261, 2783.931149597261, 2716.83069336052, 1924.5733609073948, 1924.5733609073948, 1924.5733609073948, 1924.5733609073948, 1924.5733609073948, 1942.77470282282, 2737.344522616794, 3942.289338295572, 5048.216489674215, 6074.585350868437, 7204.976147152002, 8326.519689318311, 8890.553464881285, 8890.553464881285, 8890.553464881285, 8890.553464881285, 8890.553464881285, 8890.553464881285, 8890.553464881285, 8823.55926814579, 7843.369766385537
 |1322.4406340569758, 2370.942165386005, 2783.931149597261, 2783.931149597261, 2327.6850075901934, 577.5220547176444, 2753.265289420307, 2783.931149597261, 2783.931149597261, 2783.931149597261, 2783.931149597261, 2783.931149597261, 2783.931149597261, 2632.7708198434057, 1924.5733609073948, 1924.5733609073948, 1924.5733609073948, 1924.5733609073948, 1924.5733609073948, 1924.5733609073948, 1924.5733609073948, 1924.5733609073948, 1924.5733609073948, 1924.5733609073948, 1616.9077716500344, 465.3406647614247, 1024.9753678001446, 2506.5934718995395, 3988.211575999257, 5517.980623198247, 7132.49343284811, 8548.013286053845, 8858.150812781263, 7833.599210589358, 7520.123560923858
 |52.25640720949753, 326.2185356851035, 2728.994994702353, 2783.931149597261, 1644.144460866092, 620.6107864247265, 2506.706552336031, 2703.1961167957966, 2783.931149597261, 2783.931149597261, 2783.931149597261, 2783.931149597261, 2783.931149597261, 2458.6159428424107, 1924.5733609073948, 1924.5733609073948, 1924.5733609073948, 1924.5733609073948, 1924.5733609073948, 1924.5733609073948, 1924.5733609073948, 1924.5733609073948, 1924.5733609073948, 1924.5733609073948, 1924.5733609073948, 813.3493686293957, 86.62388865040579, 86.62388865040579, 86.62388865040579, 86.62388865040579, 86.62388865040579, 163.3366164076292, 4745.348858447797, 7241.783887665462, 7520.123560923858
 |];
