m = 34;
n = 35;
FS = [| 7628, 5636, 7479, 6576, 7840, 4615, 6524, 7792, 5940, 7134, 8942, 8032, 8839, 6331, 5642, 6788, 4568, 6762, 9012, 5975, 7031, 5306, 7237, 8731, 9636, 10000, 9973, 10000, 8591, 8501, 7120, 4938, 6429, 6595, 6178
 |6748, 6700, 7081, 7282, 6977, 5512, 5811, 7738, 4576, 6010, 7145, 8206, 8817, 4100, 6513, 7096, 4618, 8147, 4404, 8711, 9616, 5710, 4520, 5960, 6440, 7835, 9672, 9956, 6540, 7483, 8122, 6893, 6958, 7379, 8568
 |7626, 8620, 7435, 6018, 7307, 5500, 7183, 7504, 8639, 7937, 6368, 8046, 9532, 3677, 1294, 4984, 3980, 7122, 6540, 8477, 10000, 3699, 7467, 7305, 5843, 3463, 7917, 7357, 9996, 9978, 9808, 7230, 8641, 7680, 7556
 |8376, 8198, 6658, 5699, 6624, 6678, 6122, 6080, 7012, 6564, 3825, 6440, 5103, 6549, 4282, 5217, 6262, 9785, 7064, 5840, 9643, 8725, 8758, 7152, 9508, 7991, 8684, 7637, 3973, 9518, 7462, 9586, 8554, 9992, 9566
 |7831, 7695, 5945, 6776, 7718, 5083, 6377, 8290, 5299, 8918, 6239, 5099, 4280, 4438, 5959, 4915, 5300, 7197, 5433, 5860, 9140, 8777, 10000, 10000, 7847, 4234, 7578, 9520, 8838, 6660, 6155, 9132, 10000, 9965, 10000
 |7963, 6342, 7549, 7984, 3268, 6315, 8587, 5125, 7818, 7374, 9011, 5967, 4156, 6950, 9981, 5402, 4870, 3449, 2486, 4733, 8386, 9287, 9502, 8047, 7873, 4832, 4353, 4770, 8709, 7594, 7224, 8396, 9797, 8731, 9789
 |5843, 8035, 7499, 7646, 7079, 6176, 6222, 4438, 4956, 7940, 6978, 7200, 7209, 6922, 6928, 6321, 5545, 4236, 5020, 5053, 8755, 10000, 5219, 5435, 3612, 5989, 5903, 4852, 4274, 5171, 9671, 8759, 8023, 7031, 6187
 |7620, 7319, 7679, 9581, 8820, 7727, 4883, 4038, 4684, 7486, 9568, 6232, 7499, 7319, 3301, 5482, 5741, 4049, 3598, 4349, 10000, 9113, 4950, 3621, 2846, 4870, 5390, 4349, 5917, 9175, 9379, 9107, 8896, 5876, 5781
 |6972, 7507, 6206, 4687, 5707, 5489, 7355, 6714, 6033, 5135, 10000, 5672, 6075, 4332, 3203, 4072, 2841, 3461, 4135, 7477, 10000, 4811, 5491, 6283, 4620, 3460, 4006, 5437, 9075, 8106, 7814, 8002, 9623, 2345, 4690
 |8275, 6694, 6618, 8712, 10000, 4685, 7057, 7365, 5495, 3511, 9828, 8281, 3516, 4340, 3559, 3747, 3833, 1934, 3139, 4375, 4445, 4750, 5049, 4507, 3973, 4743, 5130, 5740, 7471, 6529, 7028, 7288, 8213, 4054, 3668
 |9080, 4790, 3836, 5714, 5798, 6505, 7092, 4243, 4565, 5116, 8119, 6845, 6462, 4031, 4278, 4170, 4711, 2921, 4485, 4874, 4704, 5001, 4321, 2933, 3608, 2687, 2567, 7094, 7841, 8582, 8543, 7319, 7002, 5654, 5407
 |7541, 4384, 4382, 3958, 4391, 6133, 4719, 7293, 7360, 6118, 2464, 5439, 4400, 3177, 3293, 3760, 3275, 2139, 3946, 2511, 3286, 3615, 2720, 4131, 3050, 4056, 2619, 4268, 3671, 4081, 5613, 6584, 8296, 7733, 7964
 |9181, 4815, 5019, 5651, 6384, 3048, 3541, 5467, 4388, 4332, 3276, 2501, 5461, 3298, 2915, 3318, 3555, 2577, 3953, 3470, 2665, 3592, 4436, 3369, 4078, 4532, 3962, 4868, 2751, 5169, 2683, 4655, 5890, 6426, 6951
 |8998, 5400, 5148, 6590, 6033, 2581, 4007, 2907, 4088, 4510, 3630, 3620, 4772, 3647, 2062, 3884, 3362, 2564, 3952, 3309, 2785, 5099, 2545, 2738, 2824, 6008, 3984, 3636, 3678, 5397, 5079, 6670, 7153, 6235, 7718
 |7124, 5780, 4930, 5920, 4901, 5710, 5230, 6401, 3711, 3361, 2010, 5312, 3116, 2404, 1625, 2168, 3639, 4046, 3883, 2645, 2627, 3779, 2490, 3670, 2996, 3771, 4228, 4174, 3067, 4483, 4468, 8053, 6935, 8875, 6496
 |6627, 7133, 3248, 4562, 3498, 3690, 3917, 3594, 3584, 2665, 2992, 5832, 3112, 4172, 3162, 3019, 3121, 3160, 1781, 3696, 3075, 3287, 2267, 3507, 3012, 2646, 4265, 2928, 4010, 4191, 6006, 7672, 6837, 9422, 6545
 |5134, 7923, 5573, 4407, 3912, 4670, 6099, 4622, 6227, 6073, 7528, 2610, 2791, 2135, 4669, 4514, 2956, 4445, 2871, 2510, 2492, 1923, 3477, 2342, 3804, 4631, 4097, 2820, 2923, 3349, 4238, 6961, 5682, 8384, 7488
 |5550, 7500, 5729, 3516, 4126, 4233, 5615, 5588, 4849, 2380, 6516, 2828, 2771, 3300, 5361, 6102, 1375, 6538, 6985, 4063, 4119, 4425, 3068, 2480, 2987, 3410, 3707, 3630, 2930, 2938, 4300, 2526, 3971, 7759, 5713
 |6841, 8106, 8343, 5816, 4970, 3514, 3743, 2411, 4520, 4351, 6153, 2426, 3202, 3761, 3516, 5335, 4059, 8135, 6578, 2984, 3089, 3361, 2487, 2472, 3460, 2965, 3449, 5193, 2713, 3297, 4306, 4459, 3643, 8107, 5419
 |6622, 8570, 8700, 4967, 5941, 4783, 4953, 5251, 5976, 3834, 4160, 3798, 3556, 3917, 2514, 4404, 2732, 3071, 3135, 1818, 2515, 2705, 2803, 2703, 3122, 2785, 3686, 4647, 3087, 3838, 5628, 2501, 4390, 7956, 4519
 |7908, 6134, 9169, 6878, 7833, 4477, 4429, 5241, 5004, 2537, 3974, 2920, 3529, 3132, 3232, 3242, 3243, 1480, 2291, 2484, 2852, 4576, 2943, 4402, 3485, 3883, 3104, 4518, 4200, 4233, 5934, 2354, 4101, 7607, 7546
 |8417, 8185, 8375, 6115, 7220, 5383, 5604, 5664, 3584, 3333, 5256, 4228, 3117, 3579, 3291, 3115, 2581, 4110, 3149, 1900, 7511, 3494, 2625, 3329, 3771, 4635, 2828, 4669, 1920, 2806, 3743, 5749, 5935, 9889, 6656
 |7741, 7967, 8249, 6674, 7050, 6511, 6555, 8217, 2902, 4232, 3961, 5434, 2769, 2972, 3741, 2868, 4239, 4051, 4981, 4571, 4184, 3799, 3810, 4024, 4934, 3555, 2388, 3321, 3321, 3958, 3092, 3196, 6094, 8180, 7568
 |6953, 6478, 7720, 9182, 7083, 6171, 4808, 5426, 2976, 3374, 4554, 3889, 4723, 4133, 3104, 3844, 2786, 3463, 4647, 4063, 2578, 4075, 2853, 4039, 3154, 3241, 2946, 3170, 3048, 6118, 4396, 3318, 3378, 6873, 6882
 |5931, 4912, 10000, 9908, 7785, 5257, 2985, 3885, 3683, 3821, 4011, 3513, 5012, 6008, 3292, 4216, 2727, 3269, 6937, 5098, 4227, 3611, 3018, 2919, 4645, 2787, 3672, 5236, 4095, 7744, 7940, 4564, 4689, 7855, 7160
 |8142, 8077, 10000, 8280, 8569, 9264, 7984, 7234, 9461, 6906, 3964, 3501, 6730, 4066, 3552, 3472, 6287, 4539, 4391, 2589, 5357, 7022, 3811, 2509, 2488, 3735, 2774, 4735, 6956, 3221, 3392, 3502, 6763, 7814, 6682
 |7479, 9191, 10000, 9127, 8324, 7394, 8657, 9166, 8234, 5489, 4335, 6332, 6880, 5743, 6051, 3049, 4280, 4107, 6274, 3951, 5070, 5757, 3963, 2474, 3213, 5740, 5162, 3167, 4684, 3727, 5184, 3743, 5807, 6743, 8075
 |8691, 9717, 6179, 6468, 6903, 7394, 7570, 6555, 7263, 7932, 5936, 6513, 6088, 5667, 4247, 4088, 2455, 3169, 4688, 6262, 5627, 5788, 4359, 3801, 4061, 4253, 5848, 4330, 3203, 4534, 4935, 7265, 7204, 8893, 8921
 |9341, 7988, 6197, 4860, 8479, 9239, 7461, 5827, 7152, 6900, 8131, 7778, 6979, 4479, 4153, 4796, 3521, 3576, 5808, 7271, 5228, 4417, 3585, 2779, 5081, 6323, 5041, 7663, 2587, 3401, 5894, 8048, 8068, 9965, 8456
 |9525, 7781, 9971, 7080, 8165, 7981, 8138, 7185, 6769, 6896, 6132, 7816, 7502, 8408, 6594, 4289, 4807, 5212, 5895, 7851, 8357, 5957, 6249, 3867, 4223, 3638, 3115, 4992, 4732, 4672, 5850, 7107, 7382, 7565, 7586
 |9417, 9846, 10000, 8663, 8313, 8043, 7902, 7500, 6432, 7269, 8424, 7453, 5085, 5115, 8255, 7635, 7696, 8517, 8619, 7721, 7342, 6133, 5750, 4411, 4977, 5482, 5824, 4880, 5762, 5591, 3226, 6599, 7666, 5842, 8325
 |10000, 10000, 9915, 8481, 9485, 8617, 9826, 9916, 9064, 8954, 8751, 7572, 7309, 6205, 5121, 6241, 7983, 4809, 5939, 8886, 6307, 6086, 7819, 8656, 7627, 7176, 6763, 6250, 4929, 7437, 6754, 4709, 5981, 6909, 9615
 |10000, 10000, 10000, 10000, 10000, 9988, 8704, 9708, 9015, 9970, 8452, 8145, 8442, 7155, 6142, 6566, 8161, 6461, 7119, 6124, 3618, 1687, 5784, 4694, 7072, 8644, 9818, 9883, 9148, 8348, 9713, 7285, 7342, 8317, 6621
 |10000, 10000, 10000, 9948, 9795, 9777, 9353, 8354, 9782, 7544, 9292, 8052, 8109, 6803, 8791, 9051, 7919, 9850, 9527, 8102, 4870, 1801, 3118, 6794, 7924, 8325, 9936, 10000, 10000, 10000, 10000, 10000, 8456, 9404, 5916
 |];
GS = [| 1908, 107, 888, 1543, 2932, 318, 3755, 1893, 0, 334, 1570, 431, 983, 1335, 2883, 1888, 0, 218, 490, 156, 973, 200, 422, 0, 0, 0, 0, 0, 0, 95, 33, 34, 1455, 4676, 254
 |1452, 527, 360, 1607, 576, 26, 724, 908, 0, 0, 366, 3270, 4238, 54, 2794, 1411, 939, 5865, 929, 1863, 2117, 1308, 322, 0, 0, 186, 1098, 294, 0, 1280, 1659, 1624, 1172, 3317, 7195
 |2372, 964, 783, 393, 600, 607, 3303, 4414, 2974, 855, 1302, 6094, 6140, 194, 0, 0, 29, 1043, 504, 1740, 2786, 346, 317, 754, 544, 696, 5438, 1570, 779, 79, 5898, 2930, 6291, 7768, 7072
 |3163, 1011, 1699, 478, 1657, 3624, 93, 134, 1173, 1185, 20, 1595, 832, 0, 0, 269, 257, 3255, 4881, 832, 6724, 9693, 9205, 6278, 406, 1770, 2963, 353, 440, 584, 319, 2739, 7606, 10000, 10000
 |4366, 5207, 1950, 1723, 675, 952, 359, 3476, 4353, 5000, 1984, 40, 91, 0, 285, 520, 669, 1785, 638, 175, 10000, 9184, 10000, 8320, 3313, 1910, 452, 2711, 4100, 570, 1477, 2982, 1359, 4712, 7977
 |1785, 5957, 4066, 1406, 426, 1296, 1497, 610, 578, 7242, 7422, 1523, 0, 189, 4433, 185, 347, 65, 40, 1224, 8683, 6466, 6052, 5086, 3299, 2682, 174, 366, 301, 1240, 2639, 2441, 5561, 867, 771
 |998, 1403, 1491, 1085, 3003, 1483, 1133, 906, 2233, 4520, 1045, 3614, 1307, 933, 163, 137, 195, 0, 0, 217, 8035, 10000, 2485, 1418, 574, 629, 1906, 303, 0, 3243, 6420, 2416, 1545, 114, 636
 |3462, 4309, 3021, 2397, 6075, 1536, 0, 227, 341, 1342, 5114, 3053, 4872, 1312, 543, 419, 518, 597, 621, 60, 224, 1628, 857, 53, 0, 497, 1697, 730, 1764, 7910, 3323, 6671, 3866, 0, 934
 |2336, 3044, 2690, 1882, 2959, 983, 1191, 253, 179, 850, 8258, 2168, 607, 0, 113, 1633, 28, 100, 20, 24, 0, 0, 0, 848, 0, 679, 0, 2104, 5441, 6250, 3817, 2119, 3084, 0, 404
 |1829, 1929, 1271, 4086, 10000, 828, 2047, 620, 0, 0, 8123, 7501, 456, 0, 0, 1235, 19, 0, 150, 3068, 0, 153, 0, 1562, 1010, 538, 107, 409, 3188, 3042, 2315, 2455, 3302, 0, 0
 |1883, 1130, 122, 164, 772, 1053, 2007, 224, 0, 93, 2973, 914, 302, 0, 0, 158, 0, 149, 51, 456, 240, 101, 810, 251, 829, 227, 277, 3761, 2063, 1674, 2583, 3933, 2356, 105, 600
 |1376, 1783, 0, 0, 114, 20, 1163, 1563, 436, 209, 0, 2189, 0, 0, 0, 30, 256, 154, 0, 0, 0, 0, 115, 1506, 480, 934, 69, 1155, 749, 240, 1459, 826, 715, 604, 2711
 |2670, 1468, 122, 109, 709, 0, 739, 1608, 1756, 2548, 0, 60, 1771, 70, 0, 0, 0, 0, 0, 130, 0, 855, 681, 132, 176, 2268, 1469, 587, 0, 740, 0, 1956, 1080, 2950, 2260
 |2291, 1157, 115, 1773, 888, 206, 1361, 116, 1337, 399, 0, 0, 177, 470, 285, 577, 0, 0, 0, 0, 0, 40, 0, 538, 36, 2789, 969, 5, 34, 995, 632, 3478, 1832, 2178, 2771
 |1392, 940, 73, 1466, 2825, 2693, 1450, 2238, 447, 279, 0, 0, 0, 0, 0, 0, 0, 0, 417, 472, 0, 20, 0, 0, 0, 22, 0, 4, 841, 955, 847, 3325, 1340, 3741, 2881
 |1611, 2183, 0, 976, 629, 966, 384, 0, 0, 0, 0, 0, 0, 0, 0, 0, 133, 0, 0, 0, 0, 0, 0, 0, 623, 505, 2546, 17, 667, 653, 882, 2444, 2559, 3650, 1849
 |525, 1789, 2155, 861, 1555, 2117, 783, 1650, 680, 2756, 2869, 188, 731, 0, 0, 0, 0, 0, 0, 0, 0, 0, 0, 0, 435, 1470, 1687, 0, 235, 584, 1290, 2455, 610, 3063, 2038
 |1789, 1384, 1066, 455, 908, 848, 929, 1297, 2158, 1394, 2086, 155, 58, 748, 0, 979, 819, 0, 0, 40, 0, 0, 0, 0, 0, 462, 709, 355, 249, 4, 1621, 1052, 809, 876, 666
 |1306, 2400, 2699, 2406, 1350, 918, 243, 240, 1518, 2866, 1183, 811, 64, 53, 0, 240, 128, 0, 0, 80, 60, 0, 0, 0, 207, 0, 154, 180, 1120, 395, 774, 0, 557, 743, 1326
 |1904, 4429, 3083, 2381, 2215, 1341, 1482, 5311, 2944, 7, 124, 720, 573, 200, 0, 220, 0, 0, 0, 0, 0, 0, 0, 428, 0, 0, 2008, 455, 109, 593, 2944, 156, 1543, 3262, 2391
 |4202, 2353, 3749, 2990, 3386, 740, 1418, 4311, 1117, 0, 559, 347, 735, 301, 491, 95, 434, 0, 0, 258, 0, 0, 455, 0, 668, 968, 95, 338, 2106, 1670, 3893, 511, 333, 2030, 3308
 |2825, 3826, 1979, 1092, 1977, 119, 1962, 2969, 719, 584, 1681, 2485, 93, 424, 597, 1197, 9, 0, 0, 574, 980, 0, 0, 368, 1273, 1977, 456, 423, 0, 952, 1631, 2973, 1264, 3800, 2844
 |2677, 3456, 2050, 185, 2800, 1287, 1163, 3981, 180, 1312, 144, 289, 668, 5, 242, 759, 0, 61, 2143, 355, 80, 0, 450, 39, 213, 1315, 0, 1418, 507, 1706, 656, 1, 820, 4237, 1424
 |1020, 1197, 1392, 4395, 845, 440, 915, 3186, 718, 1523, 1193, 16, 1248, 1988, 1101, 1659, 0, 103, 1223, 214, 0, 0, 0, 101, 147, 0, 309, 2, 857, 4703, 3254, 101, 0, 2768, 1728
 |1050, 756, 8447, 4386, 3128, 1251, 128, 182, 165, 841, 1126, 531, 461, 639, 0, 0, 34, 558, 926, 767, 802, 439, 633, 600, 472, 0, 492, 2665, 634, 5202, 5826, 2551, 1774, 747, 396
 |4507, 4490, 10000, 5546, 3631, 3759, 4387, 3189, 6469, 3068, 1053, 36, 4615, 1385, 416, 311, 4319, 1467, 1235, 2232, 2253, 3131, 0, 0, 0, 462, 151, 1370, 4768, 1096, 729, 872, 3172, 2925, 1658
 |2745, 6615, 10000, 8607, 5859, 3140, 4000, 3162, 3981, 2052, 567, 460, 2493, 978, 40, 497, 1231, 252, 3114, 322, 1450, 610, 551, 323, 0, 3376, 3197, 0, 1788, 1696, 2825, 930, 1814, 1857, 2372
 |4750, 2546, 3453, 1821, 3281, 3851, 3482, 3475, 1239, 3025, 551, 1577, 2183, 2069, 582, 720, 367, 99, 257, 581, 600, 1896, 952, 386, 1443, 984, 2930, 2092, 237, 1857, 3508, 5961, 2931, 4118, 3890
 |7913, 2950, 3178, 1443, 4930, 5092, 4432, 1692, 2934, 2173, 2331, 2345, 2415, 828, 1745, 1293, 1120, 1854, 479, 2155, 661, 785, 935, 60, 3059, 5475, 1241, 5293, 0, 339, 2575, 1972, 2473, 4432, 2337
 |7331, 909, 34, 1794, 3726, 4077, 4972, 1903, 1997, 2758, 3129, 5195, 1999, 2236, 771, 0, 987, 2252, 1946, 1727, 3491, 2306, 2951, 375, 1523, 41, 0, 138, 1030, 78, 2342, 6034, 5928, 2526, 1881
 |2538, 0, 618, 5678, 5696, 3398, 4387, 2821, 1427, 2078, 6529, 3875, 1250, 463, 1402, 1783, 1494, 1379, 4084, 3313, 3089, 1153, 1051, 404, 1681, 3768, 1454, 1227, 2292, 2348, 702, 4660, 2909, 1645, 1929
 |0, 0, 549, 2311, 9272, 2985, 2385, 482, 939, 3275, 5545, 2418, 2097, 887, 370, 1772, 1453, 951, 6037, 493, 2099, 1030, 1126, 1354, 1802, 4417, 1732, 2507, 1501, 3367, 4825, 1976, 3533, 1973, 4828
 |0, 0, 0, 0, 1229, 21, 0, 0, 0, 421, 4799, 4517, 2913, 1454, 355, 2183, 4479, 3735, 5875, 1237, 1045, 0, 577, 1501, 1611, 7024, 8489, 7262, 5299, 3872, 6464, 3097, 290, 2161, 3236
 |0, 0, 0, 0, 0, 0, 0, 0, 15, 1209, 6136, 4857, 4513, 2572, 5353, 5543, 5254, 9849, 6047, 4526, 2721, 684, 1717, 2356, 4927, 8037, 10000, 10000, 10000, 10000, 10000, 9643, 2662, 2142, 2156
 |];
